*Heading
 TUST revision 3: linear plane strain, verified source geometry
** Job name: tr3_circle_sl0p01 Model name: tr3_circle_sl0p01
** Generated by: Abaqus/CAE 2025
*Preprint, echo=NO, model=NO, history=NO, contact=NO
**
** PARTS
**
*Part, name=Rock
*Node
      1,           0.,  0.100000001
      2,           0.,          0.5
      3,         -0.5,          0.5
      4, -0.0707106814, 0.0707106814
      5, 0.0707106814, 0.0707106814
      6,          0.5,          0.5
      7,         -0.5,           0.
      8, -0.100000001,           0.
      9,  0.100000001,           0.
     10,          0.5,           0.
     11,         -0.5,         -0.5
     12, -0.0707106814, -0.0707106814
     13, 0.0707106814, -0.0707106814
     14,          0.5,         -0.5
     15,           0.,         -0.5
     16,           0., -0.100000001
     17,           0.,  0.108163267
     18,           0.,  0.116326533
     19,           0.,  0.124489799
     20,           0.,  0.132653058
     21,           0.,  0.140816331
     22,           0.,  0.148979589
     23,           0.,  0.157142863
     24,           0.,  0.165306121
     25,           0.,  0.173469394
     26,           0.,  0.181632653
     27,           0.,  0.189795911
     28,           0.,  0.197959185
     29,           0.,  0.206122443
     30,           0.,  0.214285716
     31,           0.,  0.222448975
     32,           0.,  0.230612248
     33,           0.,  0.238775507
     34,           0.,   0.24693878
     35,           0.,  0.255102038
     36,           0.,  0.263265312
     37,           0.,  0.271428585
     38,           0.,  0.279591829
     39,           0.,  0.287755102
     40,           0.,  0.295918375
     41,           0.,  0.304081619
     42,           0.,  0.312244892
     43,           0.,  0.320408165
     44,           0.,  0.328571439
     45,           0.,  0.336734682
     46,           0.,  0.344897956
     47,           0.,  0.353061229
     48,           0.,  0.361224502
     49,           0.,  0.369387746
     50,           0.,  0.377551019
     51,           0.,  0.385714293
     52,           0.,  0.393877566
     53,           0.,  0.402040809
     54,           0.,  0.410204083
     55,           0.,  0.418367356
     56,           0.,    0.4265306
     57,           0.,  0.434693873
     58,           0.,  0.442857146
     59,           0.,   0.45102042
     60,           0.,  0.459183663
     61,           0.,  0.467346936
     62,           0.,   0.47551021
     63,           0.,  0.483673483
     64,           0.,  0.491836727
     65, -0.0172413792,          0.5
     66, -0.0344827585,          0.5
     67, -0.0517241396,          0.5
     68, -0.068965517,          0.5
     69, -0.0862068981,          0.5
     70, -0.103448279,          0.5
     71, -0.120689653,          0.5
     72, -0.137931034,          0.5
     73, -0.155172408,          0.5
     74, -0.172413796,          0.5
     75,  -0.18965517,          0.5
     76, -0.206896558,          0.5
     77, -0.224137932,          0.5
     78, -0.241379306,          0.5
     79, -0.258620679,          0.5
     80, -0.275862068,          0.5
     81, -0.293103456,          0.5
     82, -0.310344815,          0.5
     83, -0.327586204,          0.5
     84, -0.344827592,          0.5
     85, -0.362068951,          0.5
     86,  -0.37931034,          0.5
     87, -0.396551728,          0.5
     88, -0.413793117,          0.5
     89, -0.431034476,          0.5
     90, -0.448275864,          0.5
     91, -0.465517253,          0.5
     92, -0.482758611,          0.5
     93, -0.491238981,  0.491238981
     94, -0.482477993,  0.482477993
     95, -0.473716974,  0.473716974
     96, -0.464955986,  0.464955986
     97, -0.456194967,  0.456194967
     98, -0.447433949,  0.447433949
     99,  -0.43867296,   0.43867296
    100, -0.429911941,  0.429911941
    101, -0.421150953,  0.421150953
    102, -0.412389934,  0.412389934
    103, -0.403628916,  0.403628916
    104, -0.394867927,  0.394867927
    105, -0.386106908,  0.386106908
    106,  -0.37734592,   0.37734592
    107, -0.368584901,  0.368584901
    108, -0.359823883,  0.359823883
    109, -0.351062894,  0.351062894
    110, -0.342301875,  0.342301875
    111, -0.333540887,  0.333540887
    112, -0.324779868,  0.324779868
    113,  -0.31601885,   0.31601885
    114, -0.307257861,  0.307257861
    115, -0.298496842,  0.298496842
    116, -0.289735854,  0.289735854
    117, -0.280974835,  0.280974835
    118, -0.272213817,  0.272213817
    119, -0.263452828,  0.263452828
    120, -0.254691809,  0.254691809
    121, -0.245930806,  0.245930806
    122, -0.237169802,  0.237169802
    123, -0.228408799,  0.228408799
    124, -0.219647795,  0.219647795
    125, -0.210886776,  0.210886776
    126, -0.202125773,  0.202125773
    127, -0.193364769,  0.193364769
    128, -0.184603766,  0.184603766
    129, -0.175842762,  0.175842762
    130, -0.167081743,  0.167081743
    131,  -0.15832074,   0.15832074
    132, -0.149559736,  0.149559736
    133, -0.140798733,  0.140798733
    134, -0.132037729,  0.132037729
    135, -0.123276718,  0.123276718
    136, -0.114515714,  0.114515714
    137, -0.105754703,  0.105754703
    138, -0.0969936997, 0.0969936997
    139, -0.0882326886, 0.0882326886
    140, -0.079471685,  0.079471685
    141, -0.0687699467, 0.0725995526
    142, -0.066778779, 0.0744351745
    143, -0.0647386312,  0.076216206
    144, -0.0626510009, 0.0779413357
    145, -0.0605174229, 0.0796093047
    146, -0.058339458, 0.0812188908
    147, -0.0561187081, 0.0827689022
    148, -0.0538567975, 0.0842582062
    149, -0.051555384, 0.0856857151
    150, -0.0492161624, 0.0870503858
    151, -0.0468408428,  0.088351205
    152, -0.0444311723, 0.0895872265
    153, -0.0419889092, 0.0907575414
    154, -0.0395158529, 0.0918612927
    155, -0.0370138139, 0.0928976685
    156, -0.0344846286, 0.0938659161
    157, -0.0319301523, 0.0947653204
    158, -0.029352257, 0.0955952108
    159, -0.0267528333, 0.0963549986
    160, -0.0241337884, 0.0970441177
    161, -0.0214970447,  0.097662054
    162, -0.0188445318, 0.0982083678
    163,   -0.0161782, 0.0986826494
    164, -0.0135000013, 0.0990845561
    165, -0.0108119017, 0.0994137973
    166, -0.00811587274, 0.0996701196
    167, -0.00541389082, 0.0998533443
    168, -0.00270793843, 0.0999633297
    169, 0.00270793843, 0.0999633297
    170, 0.00541389082, 0.0998533443
    171, 0.00811587274, 0.0996701196
    172, 0.0108119017, 0.0994137973
    173, 0.0135000013, 0.0990845561
    174,    0.0161782, 0.0986826494
    175, 0.0188445318, 0.0982083678
    176, 0.0214970447,  0.097662054
    177, 0.0241337884, 0.0970441177
    178, 0.0267528333, 0.0963549986
    179,  0.029352257, 0.0955952108
    180, 0.0319301523, 0.0947653204
    181, 0.0344846286, 0.0938659161
    182, 0.0370138139, 0.0928976685
    183, 0.0395158529, 0.0918612927
    184, 0.0419889092, 0.0907575414
    185, 0.0444311723, 0.0895872265
    186, 0.0468408428,  0.088351205
    187, 0.0492161624, 0.0870503858
    188,  0.051555384, 0.0856857151
    189, 0.0538567975, 0.0842582062
    190, 0.0561187081, 0.0827689022
    191,  0.058339458, 0.0812188908
    192, 0.0605174229, 0.0796093047
    193, 0.0626510009, 0.0779413357
    194, 0.0647386312,  0.076216206
    195,  0.066778779, 0.0744351745
    196, 0.0687699467, 0.0725995526
    197,  0.079471685,  0.079471685
    198, 0.0882326886, 0.0882326886
    199, 0.0969936997, 0.0969936997
    200,  0.105754703,  0.105754703
    201,  0.114515714,  0.114515714
    202,  0.123276718,  0.123276718
    203,  0.132037729,  0.132037729
    204,  0.140798733,  0.140798733
    205,  0.149559736,  0.149559736
    206,   0.15832074,   0.15832074
    207,  0.167081743,  0.167081743
    208,  0.175842762,  0.175842762
    209,  0.184603766,  0.184603766
    210,  0.193364769,  0.193364769
    211,  0.202125773,  0.202125773
    212,  0.210886776,  0.210886776
    213,  0.219647795,  0.219647795
    214,  0.228408799,  0.228408799
    215,  0.237169802,  0.237169802
    216,  0.245930806,  0.245930806
    217,  0.254691809,  0.254691809
    218,  0.263452828,  0.263452828
    219,  0.272213817,  0.272213817
    220,  0.280974835,  0.280974835
    221,  0.289735854,  0.289735854
    222,  0.298496842,  0.298496842
    223,  0.307257861,  0.307257861
    224,   0.31601885,   0.31601885
    225,  0.324779868,  0.324779868
    226,  0.333540887,  0.333540887
    227,  0.342301875,  0.342301875
    228,  0.351062894,  0.351062894
    229,  0.359823883,  0.359823883
    230,  0.368584901,  0.368584901
    231,   0.37734592,   0.37734592
    232,  0.386106908,  0.386106908
    233,  0.394867927,  0.394867927
    234,  0.403628916,  0.403628916
    235,  0.412389934,  0.412389934
    236,  0.421150953,  0.421150953
    237,  0.429911941,  0.429911941
    238,   0.43867296,   0.43867296
    239,  0.447433949,  0.447433949
    240,  0.456194967,  0.456194967
    241,  0.464955986,  0.464955986
    242,  0.473716974,  0.473716974
    243,  0.482477993,  0.482477993
    244,  0.491238981,  0.491238981
    245,  0.482758611,          0.5
    246,  0.465517253,          0.5
    247,  0.448275864,          0.5
    248,  0.431034476,          0.5
    249,  0.413793117,          0.5
    250,  0.396551728,          0.5
    251,   0.37931034,          0.5
    252,  0.362068951,          0.5
    253,  0.344827592,          0.5
    254,  0.327586204,          0.5
    255,  0.310344815,          0.5
    256,  0.293103456,          0.5
    257,  0.275862068,          0.5
    258,  0.258620679,          0.5
    259,  0.241379306,          0.5
    260,  0.224137932,          0.5
    261,  0.206896558,          0.5
    262,   0.18965517,          0.5
    263,  0.172413796,          0.5
    264,  0.155172408,          0.5
    265,  0.137931034,          0.5
    266,  0.120689653,          0.5
    267,  0.103448279,          0.5
    268, 0.0862068981,          0.5
    269,  0.068965517,          0.5
    270, 0.0517241396,          0.5
    271, 0.0344827585,          0.5
    272, 0.0172413792,          0.5
    273, -0.491836727,           0.
    274, -0.483673483,           0.
    275,  -0.47551021,           0.
    276, -0.467346936,           0.
    277, -0.459183663,           0.
    278,  -0.45102042,           0.
    279, -0.442857146,           0.
    280, -0.434693873,           0.
    281,   -0.4265306,           0.
    282, -0.418367356,           0.
    283, -0.410204083,           0.
    284, -0.402040809,           0.
    285, -0.393877566,           0.
    286, -0.385714293,           0.
    287, -0.377551019,           0.
    288, -0.369387746,           0.
    289, -0.361224502,           0.
    290, -0.353061229,           0.
    291, -0.344897956,           0.
    292, -0.336734682,           0.
    293, -0.328571439,           0.
    294, -0.320408165,           0.
    295, -0.312244892,           0.
    296, -0.304081619,           0.
    297, -0.295918375,           0.
    298, -0.287755102,           0.
    299, -0.279591829,           0.
    300, -0.271428585,           0.
    301, -0.263265312,           0.
    302, -0.255102038,           0.
    303,  -0.24693878,           0.
    304, -0.238775507,           0.
    305, -0.230612248,           0.
    306, -0.222448975,           0.
    307, -0.214285716,           0.
    308, -0.206122443,           0.
    309, -0.197959185,           0.
    310, -0.189795911,           0.
    311, -0.181632653,           0.
    312, -0.173469394,           0.
    313, -0.165306121,           0.
    314, -0.157142863,           0.
    315, -0.148979589,           0.
    316, -0.140816331,           0.
    317, -0.132653058,           0.
    318, -0.124489799,           0.
    319, -0.116326533,           0.
    320, -0.108163267,           0.
    321, -0.0999633297, 0.00270793843
    322, -0.0998533443, 0.00541389082
    323, -0.0996701196, 0.00811587274
    324, -0.0994137973, 0.0108119017
    325, -0.0990845561, 0.0135000013
    326, -0.0986826494,    0.0161782
    327, -0.0982083678, 0.0188445318
    328, -0.097662054, 0.0214970447
    329, -0.0970441177, 0.0241337884
    330, -0.0963549986, 0.0267528333
    331, -0.0955952108,  0.029352257
    332, -0.0947653204, 0.0319301523
    333, -0.0938659161, 0.0344846286
    334, -0.0928976685, 0.0370138139
    335, -0.0918612927, 0.0395158529
    336, -0.0907575414, 0.0419889092
    337, -0.0895872265, 0.0444311723
    338, -0.088351205, 0.0468408428
    339, -0.0870503858, 0.0492161624
    340, -0.0856857151,  0.051555384
    341, -0.0842582062, 0.0538567975
    342, -0.0827689022, 0.0561187081
    343, -0.0812188908,  0.058339458
    344, -0.0796093047, 0.0605174229
    345, -0.0779413357, 0.0626510009
    346, -0.076216206, 0.0647386312
    347, -0.0744351745,  0.066778779
    348, -0.0725995526, 0.0687699467
    349,         -0.5,  0.482758611
    350,         -0.5,  0.465517253
    351,         -0.5,  0.448275864
    352,         -0.5,  0.431034476
    353,         -0.5,  0.413793117
    354,         -0.5,  0.396551728
    355,         -0.5,   0.37931034
    356,         -0.5,  0.362068951
    357,         -0.5,  0.344827592
    358,         -0.5,  0.327586204
    359,         -0.5,  0.310344815
    360,         -0.5,  0.293103456
    361,         -0.5,  0.275862068
    362,         -0.5,  0.258620679
    363,         -0.5,  0.241379306
    364,         -0.5,  0.224137932
    365,         -0.5,  0.206896558
    366,         -0.5,   0.18965517
    367,         -0.5,  0.172413796
    368,         -0.5,  0.155172408
    369,         -0.5,  0.137931034
    370,         -0.5,  0.120689653
    371,         -0.5,  0.103448279
    372,         -0.5, 0.0862068981
    373,         -0.5,  0.068965517
    374,         -0.5, 0.0517241396
    375,         -0.5, 0.0344827585
    376,         -0.5, 0.0172413792
    377,  0.108163267,           0.
    378,  0.116326533,           0.
    379,  0.124489799,           0.
    380,  0.132653058,           0.
    381,  0.140816331,           0.
    382,  0.148979589,           0.
    383,  0.157142863,           0.
    384,  0.165306121,           0.
    385,  0.173469394,           0.
    386,  0.181632653,           0.
    387,  0.189795911,           0.
    388,  0.197959185,           0.
    389,  0.206122443,           0.
    390,  0.214285716,           0.
    391,  0.222448975,           0.
    392,  0.230612248,           0.
    393,  0.238775507,           0.
    394,   0.24693878,           0.
    395,  0.255102038,           0.
    396,  0.263265312,           0.
    397,  0.271428585,           0.
    398,  0.279591829,           0.
    399,  0.287755102,           0.
    400,  0.295918375,           0.
    401,  0.304081619,           0.
    402,  0.312244892,           0.
    403,  0.320408165,           0.
    404,  0.328571439,           0.
    405,  0.336734682,           0.
    406,  0.344897956,           0.
    407,  0.353061229,           0.
    408,  0.361224502,           0.
    409,  0.369387746,           0.
    410,  0.377551019,           0.
    411,  0.385714293,           0.
    412,  0.393877566,           0.
    413,  0.402040809,           0.
    414,  0.410204083,           0.
    415,  0.418367356,           0.
    416,    0.4265306,           0.
    417,  0.434693873,           0.
    418,  0.442857146,           0.
    419,   0.45102042,           0.
    420,  0.459183663,           0.
    421,  0.467346936,           0.
    422,   0.47551021,           0.
    423,  0.483673483,           0.
    424,  0.491836727,           0.
    425,          0.5, 0.0172413792
    426,          0.5, 0.0344827585
    427,          0.5, 0.0517241396
    428,          0.5,  0.068965517
    429,          0.5, 0.0862068981
    430,          0.5,  0.103448279
    431,          0.5,  0.120689653
    432,          0.5,  0.137931034
    433,          0.5,  0.155172408
    434,          0.5,  0.172413796
    435,          0.5,   0.18965517
    436,          0.5,  0.206896558
    437,          0.5,  0.224137932
    438,          0.5,  0.241379306
    439,          0.5,  0.258620679
    440,          0.5,  0.275862068
    441,          0.5,  0.293103456
    442,          0.5,  0.310344815
    443,          0.5,  0.327586204
    444,          0.5,  0.344827592
    445,          0.5,  0.362068951
    446,          0.5,   0.37931034
    447,          0.5,  0.396551728
    448,          0.5,  0.413793117
    449,          0.5,  0.431034476
    450,          0.5,  0.448275864
    451,          0.5,  0.465517253
    452,          0.5,  0.482758611
    453, 0.0725995526, 0.0687699467
    454, 0.0744351745,  0.066778779
    455,  0.076216206, 0.0647386312
    456, 0.0779413357, 0.0626510009
    457, 0.0796093047, 0.0605174229
    458, 0.0812188908,  0.058339458
    459, 0.0827689022, 0.0561187081
    460, 0.0842582062, 0.0538567975
    461, 0.0856857151,  0.051555384
    462, 0.0870503858, 0.0492161624
    463,  0.088351205, 0.0468408428
    464, 0.0895872265, 0.0444311723
    465, 0.0907575414, 0.0419889092
    466, 0.0918612927, 0.0395158529
    467, 0.0928976685, 0.0370138139
    468, 0.0938659161, 0.0344846286
    469, 0.0947653204, 0.0319301523
    470, 0.0955952108,  0.029352257
    471, 0.0963549986, 0.0267528333
    472, 0.0970441177, 0.0241337884
    473,  0.097662054, 0.0214970447
    474, 0.0982083678, 0.0188445318
    475, 0.0986826494,    0.0161782
    476, 0.0990845561, 0.0135000013
    477, 0.0994137973, 0.0108119017
    478, 0.0996701196, 0.00811587274
    479, 0.0998533443, 0.00541389082
    480, 0.0999633297, 0.00270793843
    481,         -0.5, -0.0172413792
    482,         -0.5, -0.0344827585
    483,         -0.5, -0.0517241396
    484,         -0.5, -0.068965517
    485,         -0.5, -0.0862068981
    486,         -0.5, -0.103448279
    487,         -0.5, -0.120689653
    488,         -0.5, -0.137931034
    489,         -0.5, -0.155172408
    490,         -0.5, -0.172413796
    491,         -0.5,  -0.18965517
    492,         -0.5, -0.206896558
    493,         -0.5, -0.224137932
    494,         -0.5, -0.241379306
    495,         -0.5, -0.258620679
    496,         -0.5, -0.275862068
    497,         -0.5, -0.293103456
    498,         -0.5, -0.310344815
    499,         -0.5, -0.327586204
    500,         -0.5, -0.344827592
    501,         -0.5, -0.362068951
    502,         -0.5,  -0.37931034
    503,         -0.5, -0.396551728
    504,         -0.5, -0.413793117
    505,         -0.5, -0.431034476
    506,         -0.5, -0.448275864
    507,         -0.5, -0.465517253
    508,         -0.5, -0.482758611
    509, -0.491238981, -0.491238981
    510, -0.482477993, -0.482477993
    511, -0.473716974, -0.473716974
    512, -0.464955986, -0.464955986
    513, -0.456194967, -0.456194967
    514, -0.447433949, -0.447433949
    515,  -0.43867296,  -0.43867296
    516, -0.429911941, -0.429911941
    517, -0.421150953, -0.421150953
    518, -0.412389934, -0.412389934
    519, -0.403628916, -0.403628916
    520, -0.394867927, -0.394867927
    521, -0.386106908, -0.386106908
    522,  -0.37734592,  -0.37734592
    523, -0.368584901, -0.368584901
    524, -0.359823883, -0.359823883
    525, -0.351062894, -0.351062894
    526, -0.342301875, -0.342301875
    527, -0.333540887, -0.333540887
    528, -0.324779868, -0.324779868
    529,  -0.31601885,  -0.31601885
    530, -0.307257861, -0.307257861
    531, -0.298496842, -0.298496842
    532, -0.289735854, -0.289735854
    533, -0.280974835, -0.280974835
    534, -0.272213817, -0.272213817
    535, -0.263452828, -0.263452828
    536, -0.254691809, -0.254691809
    537, -0.245930806, -0.245930806
    538, -0.237169802, -0.237169802
    539, -0.228408799, -0.228408799
    540, -0.219647795, -0.219647795
    541, -0.210886776, -0.210886776
    542, -0.202125773, -0.202125773
    543, -0.193364769, -0.193364769
    544, -0.184603766, -0.184603766
    545, -0.175842762, -0.175842762
    546, -0.167081743, -0.167081743
    547,  -0.15832074,  -0.15832074
    548, -0.149559736, -0.149559736
    549, -0.140798733, -0.140798733
    550, -0.132037729, -0.132037729
    551, -0.123276718, -0.123276718
    552, -0.114515714, -0.114515714
    553, -0.105754703, -0.105754703
    554, -0.0969936997, -0.0969936997
    555, -0.0882326886, -0.0882326886
    556, -0.079471685, -0.079471685
    557, -0.0725995526, -0.0687699467
    558, -0.0744351745, -0.066778779
    559, -0.076216206, -0.0647386312
    560, -0.0779413357, -0.0626510009
    561, -0.0796093047, -0.0605174229
    562, -0.0812188908, -0.058339458
    563, -0.0827689022, -0.0561187081
    564, -0.0842582062, -0.0538567975
    565, -0.0856857151, -0.051555384
    566, -0.0870503858, -0.0492161624
    567, -0.088351205, -0.0468408428
    568, -0.0895872265, -0.0444311723
    569, -0.0907575414, -0.0419889092
    570, -0.0918612927, -0.0395158529
    571, -0.0928976685, -0.0370138139
    572, -0.0938659161, -0.0344846286
    573, -0.0947653204, -0.0319301523
    574, -0.0955952108, -0.029352257
    575, -0.0963549986, -0.0267528333
    576, -0.0970441177, -0.0241337884
    577, -0.097662054, -0.0214970447
    578, -0.0982083678, -0.0188445318
    579, -0.0986826494,   -0.0161782
    580, -0.0990845561, -0.0135000013
    581, -0.0994137973, -0.0108119017
    582, -0.0996701196, -0.00811587274
    583, -0.0998533443, -0.00541389082
    584, -0.0999633297, -0.00270793843
    585, 0.0999633297, -0.00270793843
    586, 0.0998533443, -0.00541389082
    587, 0.0996701196, -0.00811587274
    588, 0.0994137973, -0.0108119017
    589, 0.0990845561, -0.0135000013
    590, 0.0986826494,   -0.0161782
    591, 0.0982083678, -0.0188445318
    592,  0.097662054, -0.0214970447
    593, 0.0970441177, -0.0241337884
    594, 0.0963549986, -0.0267528333
    595, 0.0955952108, -0.029352257
    596, 0.0947653204, -0.0319301523
    597, 0.0938659161, -0.0344846286
    598, 0.0928976685, -0.0370138139
    599, 0.0918612927, -0.0395158529
    600, 0.0907575414, -0.0419889092
    601, 0.0895872265, -0.0444311723
    602,  0.088351205, -0.0468408428
    603, 0.0870503858, -0.0492161624
    604, 0.0856857151, -0.051555384
    605, 0.0842582062, -0.0538567975
    606, 0.0827689022, -0.0561187081
    607, 0.0812188908, -0.058339458
    608, 0.0796093047, -0.0605174229
    609, 0.0779413357, -0.0626510009
    610,  0.076216206, -0.0647386312
    611, 0.0744351745, -0.066778779
    612, 0.0725995526, -0.0687699467
    613,  0.079471685, -0.079471685
    614, 0.0882326886, -0.0882326886
    615, 0.0969936997, -0.0969936997
    616,  0.105754703, -0.105754703
    617,  0.114515714, -0.114515714
    618,  0.123276718, -0.123276718
    619,  0.132037729, -0.132037729
    620,  0.140798733, -0.140798733
    621,  0.149559736, -0.149559736
    622,   0.15832074,  -0.15832074
    623,  0.167081743, -0.167081743
    624,  0.175842762, -0.175842762
    625,  0.184603766, -0.184603766
    626,  0.193364769, -0.193364769
    627,  0.202125773, -0.202125773
    628,  0.210886776, -0.210886776
    629,  0.219647795, -0.219647795
    630,  0.228408799, -0.228408799
    631,  0.237169802, -0.237169802
    632,  0.245930806, -0.245930806
    633,  0.254691809, -0.254691809
    634,  0.263452828, -0.263452828
    635,  0.272213817, -0.272213817
    636,  0.280974835, -0.280974835
    637,  0.289735854, -0.289735854
    638,  0.298496842, -0.298496842
    639,  0.307257861, -0.307257861
    640,   0.31601885,  -0.31601885
    641,  0.324779868, -0.324779868
    642,  0.333540887, -0.333540887
    643,  0.342301875, -0.342301875
    644,  0.351062894, -0.351062894
    645,  0.359823883, -0.359823883
    646,  0.368584901, -0.368584901
    647,   0.37734592,  -0.37734592
    648,  0.386106908, -0.386106908
    649,  0.394867927, -0.394867927
    650,  0.403628916, -0.403628916
    651,  0.412389934, -0.412389934
    652,  0.421150953, -0.421150953
    653,  0.429911941, -0.429911941
    654,   0.43867296,  -0.43867296
    655,  0.447433949, -0.447433949
    656,  0.456194967, -0.456194967
    657,  0.464955986, -0.464955986
    658,  0.473716974, -0.473716974
    659,  0.482477993, -0.482477993
    660,  0.491238981, -0.491238981
    661,          0.5, -0.482758611
    662,          0.5, -0.465517253
    663,          0.5, -0.448275864
    664,          0.5, -0.431034476
    665,          0.5, -0.413793117
    666,          0.5, -0.396551728
    667,          0.5,  -0.37931034
    668,          0.5, -0.362068951
    669,          0.5, -0.344827592
    670,          0.5, -0.327586204
    671,          0.5, -0.310344815
    672,          0.5, -0.293103456
    673,          0.5, -0.275862068
    674,          0.5, -0.258620679
    675,          0.5, -0.241379306
    676,          0.5, -0.224137932
    677,          0.5, -0.206896558
    678,          0.5,  -0.18965517
    679,          0.5, -0.172413796
    680,          0.5, -0.155172408
    681,          0.5, -0.137931034
    682,          0.5, -0.120689653
    683,          0.5, -0.103448279
    684,          0.5, -0.0862068981
    685,          0.5, -0.068965517
    686,          0.5, -0.0517241396
    687,          0.5, -0.0344827585
    688,          0.5, -0.0172413792
    689,           0., -0.491836727
    690,           0., -0.483673483
    691,           0.,  -0.47551021
    692,           0., -0.467346936
    693,           0., -0.459183663
    694,           0.,  -0.45102042
    695,           0., -0.442857146
    696,           0., -0.434693873
    697,           0.,   -0.4265306
    698,           0., -0.418367356
    699,           0., -0.410204083
    700,           0., -0.402040809
    701,           0., -0.393877566
    702,           0., -0.385714293
    703,           0., -0.377551019
    704,           0., -0.369387746
    705,           0., -0.361224502
    706,           0., -0.353061229
    707,           0., -0.344897956
    708,           0., -0.336734682
    709,           0., -0.328571439
    710,           0., -0.320408165
    711,           0., -0.312244892
    712,           0., -0.304081619
    713,           0., -0.295918375
    714,           0., -0.287755102
    715,           0., -0.279591829
    716,           0., -0.271428585
    717,           0., -0.263265312
    718,           0., -0.255102038
    719,           0.,  -0.24693878
    720,           0., -0.238775507
    721,           0., -0.230612248
    722,           0., -0.222448975
    723,           0., -0.214285716
    724,           0., -0.206122443
    725,           0., -0.197959185
    726,           0., -0.189795911
    727,           0., -0.181632653
    728,           0., -0.173469394
    729,           0., -0.165306121
    730,           0., -0.157142863
    731,           0., -0.148979589
    732,           0., -0.140816331
    733,           0., -0.132653058
    734,           0., -0.124489799
    735,           0., -0.116326533
    736,           0., -0.108163267
    737, -0.00270793843, -0.0999633297
    738, -0.00541389082, -0.0998533443
    739, -0.00811587274, -0.0996701196
    740, -0.0108119017, -0.0994137973
    741, -0.0135000013, -0.0990845561
    742,   -0.0161782, -0.0986826494
    743, -0.0188445318, -0.0982083678
    744, -0.0214970447, -0.097662054
    745, -0.0241337884, -0.0970441177
    746, -0.0267528333, -0.0963549986
    747, -0.029352257, -0.0955952108
    748, -0.0319301523, -0.0947653204
    749, -0.0344846286, -0.0938659161
    750, -0.0370138139, -0.0928976685
    751, -0.0395158529, -0.0918612927
    752, -0.0419889092, -0.0907575414
    753, -0.0444311723, -0.0895872265
    754, -0.0468408428, -0.088351205
    755, -0.0492161624, -0.0870503858
    756, -0.051555384, -0.0856857151
    757, -0.0538567975, -0.0842582062
    758, -0.0561187081, -0.0827689022
    759, -0.058339458, -0.0812188908
    760, -0.0605174229, -0.0796093047
    761, -0.0626510009, -0.0779413357
    762, -0.0647386312, -0.076216206
    763, -0.066778779, -0.0744351745
    764, -0.0687699467, -0.0725995526
    765, -0.482758611,         -0.5
    766, -0.465517253,         -0.5
    767, -0.448275864,         -0.5
    768, -0.431034476,         -0.5
    769, -0.413793117,         -0.5
    770, -0.396551728,         -0.5
    771,  -0.37931034,         -0.5
    772, -0.362068951,         -0.5
    773, -0.344827592,         -0.5
    774, -0.327586204,         -0.5
    775, -0.310344815,         -0.5
    776, -0.293103456,         -0.5
    777, -0.275862068,         -0.5
    778, -0.258620679,         -0.5
    779, -0.241379306,         -0.5
    780, -0.224137932,         -0.5
    781, -0.206896558,         -0.5
    782,  -0.18965517,         -0.5
    783, -0.172413796,         -0.5
    784, -0.155172408,         -0.5
    785, -0.137931034,         -0.5
    786, -0.120689653,         -0.5
    787, -0.103448279,         -0.5
    788, -0.0862068981,         -0.5
    789, -0.068965517,         -0.5
    790, -0.0517241396,         -0.5
    791, -0.0344827585,         -0.5
    792, -0.0172413792,         -0.5
    793, 0.0172413792,         -0.5
    794, 0.0344827585,         -0.5
    795, 0.0517241396,         -0.5
    796,  0.068965517,         -0.5
    797, 0.0862068981,         -0.5
    798,  0.103448279,         -0.5
    799,  0.120689653,         -0.5
    800,  0.137931034,         -0.5
    801,  0.155172408,         -0.5
    802,  0.172413796,         -0.5
    803,   0.18965517,         -0.5
    804,  0.206896558,         -0.5
    805,  0.224137932,         -0.5
    806,  0.241379306,         -0.5
    807,  0.258620679,         -0.5
    808,  0.275862068,         -0.5
    809,  0.293103456,         -0.5
    810,  0.310344815,         -0.5
    811,  0.327586204,         -0.5
    812,  0.344827592,         -0.5
    813,  0.362068951,         -0.5
    814,   0.37931034,         -0.5
    815,  0.396551728,         -0.5
    816,  0.413793117,         -0.5
    817,  0.431034476,         -0.5
    818,  0.448275864,         -0.5
    819,  0.465517253,         -0.5
    820,  0.482758611,         -0.5
    821, 0.0687699467, -0.0725995526
    822,  0.066778779, -0.0744351745
    823, 0.0647386312, -0.076216206
    824, 0.0626510009, -0.0779413357
    825, 0.0605174229, -0.0796093047
    826,  0.058339458, -0.0812188908
    827, 0.0561187081, -0.0827689022
    828, 0.0538567975, -0.0842582062
    829,  0.051555384, -0.0856857151
    830, 0.0492161624, -0.0870503858
    831, 0.0468408428, -0.088351205
    832, 0.0444311723, -0.0895872265
    833, 0.0419889092, -0.0907575414
    834, 0.0395158529, -0.0918612927
    835, 0.0370138139, -0.0928976685
    836, 0.0344846286, -0.0938659161
    837, 0.0319301523, -0.0947653204
    838,  0.029352257, -0.0955952108
    839, 0.0267528333, -0.0963549986
    840, 0.0241337884, -0.0970441177
    841, 0.0214970447, -0.097662054
    842, 0.0188445318, -0.0982083678
    843,    0.0161782, -0.0986826494
    844, 0.0135000013, -0.0990845561
    845, 0.0108119017, -0.0994137973
    846, 0.00811587274, -0.0996701196
    847, 0.00541389082, -0.0998533443
    848, 0.00270793843, -0.0999633297
    849, -0.00300453929,  0.108127341
    850, -0.00330114015,  0.116291359
    851, -0.00359774102,   0.12445537
    852, -0.00389434188,  0.132619381
    853, -0.00419094274,  0.140783399
    854, -0.00448754337,  0.148947418
    855, -0.00478414446,  0.157111421
    856, -0.00508074509,   0.16527544
    857, -0.00537734618,  0.173439458
    858, -0.00567394681,  0.181603462
    859, -0.00597054744,   0.18976748
    860, -0.00626714854,  0.197931498
    861, -0.00656374916,  0.206095502
    862, -0.00686035026,   0.21425952
    863, -0.00715695089,  0.222423539
    864, -0.00745355198,  0.230587542
    865, -0.00775015261,   0.23875156
    866, -0.0080467537,  0.246915579
    867, -0.00834335387,  0.255079597
    868, -0.00863995496,  0.263243616
    869, -0.00893655606,  0.271407604
    870, -0.00923315715,  0.279571623
    871, -0.00952975731,  0.287735641
    872, -0.00982635841,  0.295899659
    873, -0.0101229595,  0.304063678
    874, -0.0104195606,  0.312227696
    875, -0.0107161608,  0.320391685
    876, -0.0110127619,  0.328555703
    877, -0.0113093629,  0.336719722
    878, -0.0116059631,   0.34488374
    879, -0.0119025642,  0.353047758
    880, -0.0121991653,  0.361211777
    881, -0.0124957664,  0.369375795
    882, -0.0127923666,  0.377539784
    883, -0.0130889677,  0.385703802
    884, -0.0133855687,  0.393867821
    885, -0.0136821689,  0.402031839
    886,  -0.01397877,  0.410195857
    887, -0.0142753711,  0.418359876
    888, -0.0145719722,  0.426523864
    889, -0.0148685724,  0.434687883
    890, -0.0151651734,  0.442851901
    891, -0.0154617745,  0.451015919
    892, -0.0157583747,  0.459179938
    893, -0.0160549767,  0.467343956
    894, -0.0163515769,  0.475507945
    895, -0.0166481771,  0.483671963
    896, -0.0169447791,  0.491835982
    897, -0.00600713305,  0.108019598
    898, -0.00660037529,  0.116185859
    899, -0.00719361752,   0.12435212
    900, -0.00778685976,  0.132518381
    901, -0.00838010199,  0.140684634
    902, -0.00897334423,  0.148850888
    903, -0.00956658646,  0.157017156
    904, -0.0101598287,   0.16518341
    905, -0.0107530709,  0.173349664
    906, -0.0113463132,  0.181515932
    907, -0.0119395554,  0.189682186
    908, -0.0125327976,  0.197848439
    909, -0.0131260399,  0.206014693
    910, -0.0137192821,  0.214180961
    911, -0.0143125234,  0.222347215
    912, -0.0149057657,  0.230513468
    913, -0.0154990079,  0.238679737
    914, -0.0160922501,   0.24684599
    915, -0.0166854933,  0.255012244
    916, -0.0172787346,  0.263178498
    917, -0.0178719778,  0.271344781
    918, -0.0184652191,  0.279511034
    919, -0.0190584622,  0.287677288
    920, -0.0196517035,  0.295843542
    921, -0.0202449467,  0.304009795
    922, -0.020838188,  0.312176049
    923, -0.0214314293,  0.320342302
    924, -0.0220246725,  0.328508586
    925, -0.0226179138,  0.336674839
    926, -0.0232111569,  0.344841093
    927, -0.0238043983,  0.353007346
    928, -0.0243976414,    0.3611736
    929, -0.0249908827,  0.369339854
    930, -0.0255841259,  0.377506137
    931, -0.0261773672,   0.38567239
    932, -0.0267706104,  0.393838644
    933, -0.0273638517,  0.402004898
    934, -0.0279570948,  0.410171151
    935, -0.0285503361,  0.418337405
    936, -0.0291435793,  0.426503688
    937, -0.0297368206,  0.434669942
    938, -0.0303300638,  0.442836195
    939, -0.0309233051,  0.451002449
    940, -0.0315165482,  0.459168702
    941, -0.0321097896,  0.467334956
    942, -0.0327030309,  0.475501239
    943, -0.0332962759,  0.483667493
    944, -0.0338895172,  0.491833746
    945, -0.00900583714,  0.107840113
    946, -0.00989580154,  0.116010115
    947, -0.0107857659,  0.124180108
    948, -0.0116757313,  0.132350102
    949, -0.0125656957,  0.140520111
    950, -0.0134556601,  0.148690104
    951, -0.0143456245,  0.156860098
    952, -0.0152355889,  0.165030107
    953, -0.0161255542,  0.173200101
    954, -0.0170155186,  0.181370094
    955, -0.017905483,  0.189540088
    956, -0.0187954474,  0.197710097
    957, -0.0196854118,  0.205880091
    958, -0.0205753762,  0.214050084
    959, -0.0214653406,  0.222220078
    960, -0.0223553069,  0.230390087
    961, -0.0232452713,  0.238560081
    962, -0.0241352357,  0.246730074
    963, -0.0250252001,  0.254900068
    964, -0.0259151645,  0.263070077
    965, -0.0268051289,  0.271240056
    966, -0.0276950933,  0.279410064
    967, -0.0285850577,  0.287580073
    968, -0.0294750221,  0.295750052
    969, -0.0303649884,   0.30392006
    970, -0.0312549509,  0.312090069
    971, -0.0321449153,  0.320260048
    972, -0.0330348797,  0.328430057
    973, -0.0339248441,  0.336600035
    974, -0.0348148122,  0.344770044
    975, -0.0357047766,  0.352940053
    976, -0.036594741,  0.361110032
    977, -0.0374847054,   0.36928004
    978, -0.0383746698,  0.377450049
    979, -0.0392646343,  0.385620028
    980, -0.0401545987,  0.393790036
    981, -0.0410445631,  0.401960015
    982, -0.0419345275,  0.410130024
    983, -0.0428244919,  0.418300033
    984, -0.0437144563,  0.426470011
    985, -0.0446044207,   0.43464002
    986, -0.0454943851,  0.442810029
    987, -0.0463843495,  0.450980008
    988, -0.0472743139,  0.459150016
    989, -0.0481642783,  0.467319995
    990, -0.0490542427,  0.475490004
    991, -0.0499442071,  0.483660012
    992, -0.0508341715,  0.491829991
    993, -0.0119987102,  0.107589021
    994, -0.0131855188,  0.115764253
    995, -0.0143723274,  0.123939484
    996, -0.0155591359,  0.132114708
    997, -0.0167459436,  0.140289932
    998, -0.0179327521,  0.148465171
    999, -0.0191195607,  0.156640396
   1000, -0.0203063693,   0.16481562
   1001, -0.0214931779,  0.172990859
   1002, -0.0226799864,  0.181166083
   1003, -0.023866795,  0.189341307
   1004, -0.0250536036,  0.197516546
   1005, -0.0262404121,   0.20569177
   1006, -0.0274272207,  0.213866994
   1007, -0.0286140293,  0.222042233
   1008, -0.0298008379,  0.230217457
   1009, -0.0309876464,  0.238392681
   1010, -0.0321744531,  0.246567905
   1011, -0.0333612636,  0.254743129
   1012, -0.0345480703,  0.262918383
   1013, -0.0357348807,  0.271093607
   1014, -0.0369216874,  0.279268831
   1015, -0.0381084979,  0.287444055
   1016, -0.0392953046,  0.295619279
   1017, -0.040482115,  0.303794503
   1018, -0.0416689217,  0.311969727
   1019, -0.0428557321,  0.320144981
   1020, -0.0440425389,  0.328320205
   1021, -0.0452293493,  0.336495429
   1022, -0.046416156,  0.344670653
   1023, -0.0476029664,  0.352845877
   1024, -0.0487897731,  0.361021101
   1025, -0.0499765798,  0.369196355
   1026, -0.0511633903,  0.377371579
   1027, -0.052350197,  0.385546803
   1028, -0.0535370074,  0.393722028
   1029, -0.0547238141,  0.401897252
   1030, -0.0559106246,  0.410072476
   1031, -0.0570974313,    0.4182477
   1032, -0.0582842417,  0.426422954
   1033, -0.0594710484,  0.434598178
   1034, -0.0606578588,  0.442773402
   1035, -0.0618446656,  0.450948626
   1036, -0.0630314723,   0.45912385
   1037, -0.0642182827,  0.467299074
   1038, -0.0654050931,  0.475474328
   1039, -0.0665919036,  0.483649552
   1040, -0.0677787066,  0.491824776
   1041, -0.0149838151,  0.107266508
   1042, -0.016467629,  0.115448453
   1043, -0.0179514438,  0.123630404
   1044, -0.0194352586,  0.131812349
   1045, -0.0209190715,  0.139994293
   1046, -0.0224028863,  0.148176253
   1047, -0.0238867011,  0.156358197
   1048, -0.025370514,  0.164540142
   1049, -0.0268543288,  0.172722086
   1050, -0.0283381436,  0.180904031
   1051, -0.0298219565,   0.18908599
   1052, -0.0313057713,  0.197267935
   1053, -0.0327895842,  0.205449879
   1054, -0.0342734009,  0.213631824
   1055, -0.0357572138,  0.221813783
   1056, -0.0372410268,  0.229995728
   1057, -0.0387248434,  0.238177672
   1058, -0.0402086563,  0.246359617
   1059, -0.0416924693,  0.254541576
   1060, -0.0431762859,  0.262723505
   1061, -0.0446600989,  0.270905465
   1062, -0.0461439118,  0.279087424
   1063, -0.0476277284,  0.287269354
   1064, -0.0491115414,  0.295451313
   1065, -0.0505953543,  0.303633243
   1066, -0.0520791709,  0.311815202
   1067, -0.0535629839,  0.319997162
   1068, -0.0550467968,  0.328179091
   1069, -0.0565306135,  0.336361051
   1070, -0.0580144264,   0.34454298
   1071, -0.059498243,   0.35272494
   1072, -0.060982056,  0.360906899
   1073, -0.0624658689,  0.369088829
   1074, -0.0639496818,  0.377270788
   1075, -0.0654334947,  0.385452718
   1076, -0.0669173151,  0.393634677
   1077, -0.0684011281,  0.401816636
   1078, -0.069884941,  0.409998566
   1079, -0.0713687539,  0.418180525
   1080, -0.0728525668,  0.426362485
   1081, -0.0743363798,  0.434544414
   1082, -0.0758202001,  0.442726374
   1083, -0.0773040131,  0.450908303
   1084, -0.078787826,  0.459090263
   1085, -0.0802716389,  0.467272222
   1086, -0.0817554519,  0.475454152
   1087, -0.0832392648,  0.483636111
   1088, -0.0847230852,  0.491818041
   1089, -0.0179592222,  0.106872804
   1090, -0.0197402444,  0.115062952
   1091, -0.0215212647,    0.1232531
   1092, -0.0233022869,  0.131443247
   1093, -0.025083309,  0.139633402
   1094, -0.0268643312,  0.147823557
   1095, -0.0286453534,  0.156013697
   1096, -0.0304263756,  0.164203852
   1097, -0.0322073959,  0.172394007
   1098, -0.0339884199,  0.180584148
   1099, -0.0357694402,  0.188774303
   1100, -0.0375504643,  0.196964458
   1101, -0.0393314846,  0.205154598
   1102, -0.0411125086,  0.213344753
   1103, -0.0428935289,  0.221534908
   1104, -0.0446745493,  0.229725048
   1105, -0.0464555733,  0.237915203
   1106, -0.0482365936,  0.246105358
   1107, -0.0500176176,  0.254295498
   1108, -0.051798638,  0.262485653
   1109, -0.053579662,  0.270675808
   1110, -0.0553606823,  0.278865963
   1111, -0.0571417063,  0.287056088
   1112, -0.0589227267,  0.295246243
   1113, -0.060703747,  0.303436399
   1114, -0.062484771,  0.311626554
   1115, -0.0642657951,  0.319816709
   1116, -0.0660468116,  0.328006864
   1117, -0.0678278357,  0.336196989
   1118, -0.0696088597,  0.344387144
   1119, -0.0713898838,  0.352577299
   1120, -0.0731709003,  0.360767454
   1121, -0.0749519244,  0.368957609
   1122, -0.0767329484,  0.377147764
   1123, -0.078513965,  0.385337889
   1124, -0.080294989,  0.393528044
   1125, -0.0820760131,  0.401718199
   1126, -0.0838570371,  0.409908354
   1127, -0.0856380537,  0.418098509
   1128, -0.0874190778,  0.426288664
   1129, -0.0892001018,   0.43447879
   1130, -0.0909811258,  0.442668945
   1131, -0.0927621424,    0.4508591
   1132, -0.0945431665,  0.459049255
   1133, -0.0963241905,   0.46723941
   1134, -0.0981052071,  0.475429565
   1135, -0.0998862311,   0.48361969
   1136, -0.101667255,  0.491809845
   1137, -0.0209230036,  0.106408201
   1138, -0.0230014753,  0.114608027
   1139, -0.0250799488,  0.122807853
   1140, -0.0271584205,  0.131007686
   1141, -0.0292368922,  0.139207512
   1142, -0.0313153639,  0.147407338
   1143, -0.0333938338,  0.155607179
   1144, -0.0354723074,  0.163807005
   1145, -0.0375507809,  0.172006831
   1146, -0.0396292508,  0.180206656
   1147, -0.0417077243,  0.188406482
   1148, -0.0437861942,  0.196606323
   1149, -0.0458646677,  0.204806149
   1150, -0.0479431376,  0.213005975
   1151, -0.0500216112,  0.221205801
   1152, -0.052100081,  0.229405642
   1153, -0.0541785546,  0.237605467
   1154, -0.0562570281,  0.245805293
   1155, -0.058335498,  0.254005134
   1156, -0.0604139715,  0.262204945
   1157, -0.0624924414,  0.270404786
   1158, -0.0645709112,  0.278604597
   1159, -0.0666493848,  0.286804438
   1160, -0.0687278584,  0.295004278
   1161, -0.0708063319,  0.303204089
   1162, -0.072884798,   0.31140393
   1163, -0.0749632716,  0.319603771
   1164, -0.0770417452,  0.327803582
   1165, -0.0791202188,  0.336003423
   1166, -0.0811986923,  0.344203234
   1167, -0.0832771584,  0.352403075
   1168, -0.085355632,  0.360602915
   1169, -0.0874341056,  0.368802726
   1170, -0.0895125791,  0.377002567
   1171, -0.0915910453,  0.385202378
   1172, -0.0936695188,  0.393402219
   1173, -0.0957479924,   0.40160206
   1174, -0.097826466,  0.409801871
   1175, -0.0999049395,  0.418001711
   1176, -0.101983406,  0.426201522
   1177, -0.104061879,  0.434401363
   1178, -0.106140353,  0.442601204
   1179, -0.108218826,  0.450801015
   1180, -0.110297292,  0.459000856
   1181, -0.112375766,  0.467200696
   1182,  -0.11445424,  0.475400507
   1183, -0.116532713,  0.483600348
   1184, -0.118611187,  0.491800159
   1185, -0.0238732472,  0.105873033
   1186, -0.0262494516,  0.114084013
   1187, -0.0286256559,  0.122294992
   1188, -0.0310018603,  0.130505964
   1189, -0.0333780646,  0.138716951
   1190, -0.0357542671,  0.146927923
   1191, -0.0381304696,   0.15513891
   1192, -0.0405066758,  0.163349882
   1193, -0.0428828783,  0.171560869
   1194, -0.0452590846,  0.179771841
   1195, -0.047635287,  0.187982813
   1196, -0.0500114895,  0.196193799
   1197, -0.0523876958,  0.204404771
   1198, -0.0547638983,  0.212615758
   1199, -0.0571401007,   0.22082673
   1200, -0.059516307,  0.229037717
   1201, -0.0618925095,  0.237248689
   1202, -0.0642687157,  0.245459661
   1203, -0.0666449144,  0.253670633
   1204, -0.0690211207,   0.26188162
   1205, -0.0713973269,  0.270092607
   1206, -0.0737735331,  0.278303593
   1207, -0.0761497319,   0.28651455
   1208, -0.0785259381,  0.294725537
   1209, -0.0809021443,  0.302936524
   1210, -0.0832783431,  0.311147481
   1211, -0.0856545493,  0.319358468
   1212, -0.0880307555,  0.327569455
   1213, -0.0904069543,  0.335780442
   1214, -0.0927831605,  0.343991399
   1215, -0.0951593667,  0.352202386
   1216, -0.0975355655,  0.360413373
   1217, -0.0999117717,  0.368624359
   1218, -0.102287978,  0.376835316
   1219, -0.104664177,  0.385046303
   1220, -0.107040383,   0.39325729
   1221, -0.109416589,  0.401468247
   1222, -0.111792795,  0.409679234
   1223, -0.114168994,  0.417890221
   1224,   -0.1165452,  0.426101208
   1225, -0.118921407,  0.434312165
   1226, -0.121297605,  0.442523152
   1227, -0.123673812,  0.450734138
   1228,  -0.12605001,  0.458945096
   1229, -0.128426224,  0.467156082
   1230, -0.130802423,  0.475367069
   1231, -0.133178622,  0.483578056
   1232, -0.135554835,  0.491789013
   1233, -0.0268080477,  0.105267704
   1234, -0.029482305,  0.113491297
   1235, -0.0321565606,  0.121714883
   1236, -0.0348308198,  0.129938468
   1237, -0.0375050791,  0.138162062
   1238, -0.0401793346,  0.146385655
   1239, -0.0428535938,  0.154609248
   1240, -0.0455278493,  0.162832826
   1241, -0.0482021086,   0.17105642
   1242, -0.0508763641,  0.179280013
   1243, -0.0535506234,  0.187503606
   1244, -0.0562248826,  0.195727184
   1245, -0.0588991381,  0.203950778
   1246, -0.0615733974,  0.212174371
   1247, -0.0642476529,  0.220397964
   1248, -0.0669219121,  0.228621542
   1249, -0.0695961714,  0.236845136
   1250, -0.0722704232,  0.245068729
   1251, -0.0749446824,  0.253292322
   1252, -0.0776189417,  0.261515915
   1253, -0.0802932009,  0.269739509
   1254, -0.0829674602,  0.277963072
   1255, -0.085641712,  0.286186665
   1256, -0.0883159712,  0.294410259
   1257, -0.0909902304,  0.302633852
   1258, -0.0936644897,  0.310857445
   1259, -0.0963387489,  0.319081038
   1260, -0.0990130007,  0.327304631
   1261,  -0.10168726,  0.335528225
   1262, -0.104361519,  0.343751788
   1263, -0.107035778,  0.351975381
   1264,  -0.10971003,  0.360198975
   1265,  -0.11238429,  0.368422568
   1266, -0.115058549,  0.376646161
   1267, -0.117732808,  0.384869754
   1268, -0.120407067,  0.393093348
   1269, -0.123081319,  0.401316941
   1270, -0.125755578,  0.409540504
   1271,  -0.12842983,  0.417764097
   1272, -0.131104097,  0.425987691
   1273, -0.133778349,  0.434211284
   1274, -0.136452615,  0.442434877
   1275, -0.139126867,   0.45065847
   1276, -0.141801119,  0.458882064
   1277, -0.144475386,  0.467105657
   1278, -0.147149637,   0.47532922
   1279, -0.149823904,  0.483552814
   1280, -0.152498156,  0.491776407
   1281, -0.0297255069,  0.104592651
   1282, -0.0326981805,  0.112830304
   1283, -0.0356708504,  0.121067956
   1284, -0.0386435241,  0.129305616
   1285, -0.0416161977,  0.137543261
   1286, -0.0445888713,  0.145780921
   1287, -0.0475615412,  0.154018566
   1288, -0.0505342148,  0.162256226
   1289, -0.0535068884,  0.170493871
   1290, -0.0564795621,  0.178731531
   1291, -0.059452232,  0.186969176
   1292, -0.0624249056,  0.195206836
   1293, -0.0653975755,  0.203444496
   1294, -0.0683702528,  0.211682141
   1295, -0.0713429227,  0.219919801
   1296, -0.0743155926,  0.228157446
   1297,  -0.07728827,  0.236395106
   1298, -0.0802609399,  0.244632751
   1299, -0.0832336172,  0.252870411
   1300, -0.0862062871,  0.261108071
   1301, -0.089178957,  0.269345701
   1302, -0.0921516344,  0.277583361
   1303, -0.0951243043,  0.285821021
   1304, -0.0980969742,  0.294058681
   1305, -0.101069652,   0.30229634
   1306, -0.104042321,  0.310533971
   1307, -0.107014999,  0.318771631
   1308, -0.109987669,   0.32700929
   1309, -0.112960339,   0.33524695
   1310, -0.115933016,  0.343484581
   1311, -0.118905686,   0.35172224
   1312, -0.121878356,    0.3599599
   1313, -0.124851033,   0.36819756
   1314,  -0.12782371,   0.37643519
   1315, -0.130796373,   0.38467285
   1316,  -0.13376905,   0.39291051
   1317, -0.136741728,   0.40114817
   1318,  -0.13971439,   0.40938583
   1319, -0.142687067,   0.41762346
   1320, -0.145659745,   0.42586112
   1321, -0.148632407,   0.43409878
   1322, -0.151605085,   0.44233644
   1323, -0.154577762,   0.45057407
   1324, -0.157550424,   0.45881173
   1325, -0.160523102,   0.46704939
   1326, -0.163495779,   0.47528705
   1327, -0.166468441,   0.48352468
   1328, -0.169441119,   0.49176234
   1329, -0.0326237455,  0.103848375
   1330, -0.0358952321,  0.112101533
   1331, -0.0391667224,   0.12035469
   1332, -0.0424382091,  0.128607854
   1333, -0.0457096994,  0.136861011
   1334, -0.048981186,  0.145114169
   1335, -0.0522526726,  0.153367326
   1336, -0.0555241629,  0.161620483
   1337, -0.0587956496,   0.16987364
   1338, -0.0620671362,  0.178126797
   1339, -0.0653386265,  0.186379969
   1340, -0.0686101168,  0.194633126
   1341, -0.0718815997,  0.202886283
   1342, -0.0751530901,  0.211139441
   1343, -0.0784245804,  0.219392598
   1344, -0.0816960633,  0.227645755
   1345, -0.0849675536,  0.235898912
   1346, -0.088239044,  0.244152069
   1347, -0.0915105268,  0.252405226
   1348, -0.0947820172,  0.260658383
   1349, -0.0980535075,  0.268911541
   1350, -0.101324998,  0.277164698
   1351, -0.104596481,  0.285417855
   1352, -0.107867971,  0.293671042
   1353, -0.111139461,  0.301924199
   1354, -0.114410944,  0.310177356
   1355, -0.117682435,  0.318430513
   1356, -0.120953925,   0.32668367
   1357, -0.124225408,  0.334936827
   1358, -0.127496898,  0.343189985
   1359, -0.130768389,  0.351443142
   1360, -0.134039879,  0.359696299
   1361, -0.137311369,  0.367949456
   1362, -0.140582845,  0.376202613
   1363, -0.143854335,   0.38445577
   1364, -0.147125825,  0.392708927
   1365, -0.150397316,  0.400962085
   1366, -0.153668806,  0.409215242
   1367, -0.156940296,  0.417468399
   1368, -0.160211787,  0.425721556
   1369, -0.163483262,  0.433974743
   1370, -0.166754752,    0.4422279
   1371, -0.170026243,  0.450481057
   1372, -0.173297733,  0.458734214
   1373, -0.176569223,  0.466987371
   1374, -0.179840714,  0.475240529
   1375, -0.183112189,  0.483493686
   1376,  -0.18638368,  0.491746843
   1377, -0.0355008952,  0.103035413
   1378, -0.0390716381,  0.111305505
   1379, -0.042642381,  0.119575605
   1380, -0.0462131239,  0.127845705
   1381, -0.0497838669,  0.136115789
   1382, -0.0533546098,  0.144385889
   1383, -0.0569253527,  0.152655989
   1384, -0.0604960956,  0.160926089
   1385, -0.0640668422,  0.169196174
   1386, -0.0676375777,  0.177466273
   1387, -0.0712083206,  0.185736373
   1388, -0.0747790635,  0.194006458
   1389, -0.0783498064,  0.202276558
   1390, -0.0819205493,  0.210546657
   1391, -0.0854912922,  0.218816757
   1392, -0.0890620351,  0.227086842
   1393, -0.092632778,  0.235356942
   1394, -0.0962035209,  0.243627042
   1395, -0.0997742638,  0.251897126
   1396, -0.103345007,  0.260167241
   1397,  -0.10691575,  0.268437326
   1398, -0.110486493,  0.276707411
   1399, -0.114057235,  0.284977525
   1400, -0.117627978,   0.29324761
   1401, -0.121198721,  0.301517695
   1402, -0.124769464,   0.30978781
   1403, -0.128340214,  0.318057895
   1404,  -0.13191095,   0.32632798
   1405,   -0.1354817,  0.334598094
   1406, -0.139052436,  0.342868179
   1407, -0.142623186,  0.351138294
   1408, -0.146193922,  0.359408379
   1409, -0.149764672,  0.367678463
   1410, -0.153335407,  0.375948578
   1411, -0.156906158,  0.384218663
   1412, -0.160476893,  0.392488748
   1413, -0.164047644,  0.400758862
   1414, -0.167618379,  0.409028947
   1415, -0.171189129,  0.417299032
   1416, -0.174759865,  0.425569147
   1417, -0.178330615,  0.433839232
   1418, -0.181901351,  0.442109317
   1419, -0.185472101,  0.450379431
   1420, -0.189042836,  0.458649516
   1421, -0.192613587,  0.466919631
   1422, -0.196184322,  0.475189716
   1423, -0.199755073,    0.4834598
   1424, -0.203325808,  0.491729915
   1425, -0.0383551046,  0.102154367
   1426, -0.0422255807,  0.110442817
   1427, -0.0460960567,  0.118731268
   1428, -0.0499665327,  0.127019718
   1429, -0.0538370088,  0.135308176
   1430, -0.0577074848,  0.143596619
   1431, -0.0615779571,  0.151885077
   1432, -0.0654484332,   0.16017352
   1433, -0.0693189129,  0.168461978
   1434, -0.0731893852,  0.176750422
   1435, -0.0770598575,   0.18503888
   1436, -0.0809303373,  0.193327323
   1437, -0.0848008096,  0.201615781
   1438, -0.0886712894,  0.209904224
   1439, -0.0925417617,  0.218192682
   1440, -0.0964122415,  0.226481125
   1441, -0.100282714,  0.234769583
   1442, -0.104153186,  0.243058026
   1443, -0.108023666,  0.251346469
   1444, -0.111894138,  0.259634942
   1445, -0.115764618,  0.267923385
   1446,  -0.11963509,  0.276211828
   1447,  -0.12350557,  0.284500271
   1448,  -0.12737605,  0.292788744
   1449, -0.131246522,  0.301077187
   1450, -0.135116994,   0.30936563
   1451, -0.138987467,  0.317654073
   1452, -0.142857939,  0.325942546
   1453, -0.146728426,  0.334230989
   1454, -0.150598899,  0.342519432
   1455, -0.154469371,  0.350807875
   1456, -0.158339843,  0.359096348
   1457, -0.162210315,  0.367384791
   1458, -0.166080803,  0.375673234
   1459, -0.169951275,  0.383961678
   1460, -0.173821747,   0.39225015
   1461,  -0.17769222,  0.400538594
   1462, -0.181562707,  0.408827037
   1463, -0.185433179,   0.41711548
   1464, -0.189303651,  0.425403953
   1465, -0.193174124,  0.433692396
   1466, -0.197044596,  0.441980839
   1467, -0.200915083,  0.450269282
   1468, -0.204785556,  0.458557755
   1469, -0.208656028,  0.466846198
   1470,   -0.2125265,  0.475134641
   1471, -0.216396973,  0.483423084
   1472,  -0.22026746,  0.491711557
   1473, -0.0411845408,  0.101205885
   1474, -0.0453552641,  0.109514095
   1475, -0.0495259874,  0.117822304
   1476, -0.0536967143,  0.126130521
   1477, -0.0578674376,  0.134438723
   1478, -0.0620381609,   0.14274694
   1479, -0.0662088841,  0.151055142
   1480, -0.0703796074,  0.159363359
   1481, -0.0745503381,  0.167671576
   1482, -0.0787210613,  0.175979778
   1483, -0.0828917846,  0.184287995
   1484, -0.0870625079,  0.192596197
   1485, -0.0912332311,  0.200904414
   1486, -0.0954039544,  0.209212616
   1487, -0.0995746776,  0.217520833
   1488, -0.103745408,   0.22582905
   1489, -0.107916132,  0.234137252
   1490, -0.112086855,  0.242445469
   1491, -0.116257578,  0.250753671
   1492, -0.120428301,  0.259061873
   1493, -0.124599025,  0.267370105
   1494, -0.128769755,  0.275678307
   1495, -0.132940471,  0.283986509
   1496, -0.137111202,  0.292294741
   1497, -0.141281918,  0.300602943
   1498, -0.145452648,  0.308911145
   1499, -0.149623379,  0.317219377
   1500, -0.153794095,  0.325527579
   1501, -0.157964826,  0.333835781
   1502, -0.162135541,  0.342143983
   1503, -0.166306272,  0.350452214
   1504, -0.170477003,  0.358760417
   1505, -0.174647719,  0.367068619
   1506, -0.178818449,   0.37537685
   1507, -0.182989165,  0.383685052
   1508, -0.187159896,  0.391993254
   1509, -0.191330612,  0.400301456
   1510, -0.195501342,  0.408609688
   1511, -0.199672073,   0.41691789
   1512, -0.203842789,  0.425226092
   1513,  -0.20801352,  0.433534324
   1514, -0.212184235,  0.441842526
   1515, -0.216354966,  0.450150728
   1516, -0.220525682,   0.45845896
   1517, -0.224696413,  0.466767162
   1518, -0.228867143,  0.475075364
   1519, -0.233037859,  0.483383566
   1520,  -0.23720859,  0.491691798
   1521, -0.0439873822,  0.100190654
   1522, -0.0484589078,  0.108520016
   1523, -0.052930437,  0.116849378
   1524, -0.0574019626,  0.125178739
   1525, -0.0618734919,  0.133508101
   1526, -0.0663450211,  0.141837463
   1527, -0.0708165467,  0.150166824
   1528, -0.0752880722,  0.158496186
   1529, -0.0797595978,  0.166825548
   1530, -0.0842311233,  0.175154909
   1531, -0.0887026563,  0.183484271
   1532, -0.0931741819,  0.191813633
   1533, -0.0976457074,  0.200142995
   1534, -0.102117233,  0.208472356
   1535, -0.106588766,  0.216801718
   1536, -0.111060292,   0.22513108
   1537, -0.115531817,  0.233460441
   1538, -0.120003343,  0.241789803
   1539, -0.124474868,   0.25011915
   1540, -0.128946394,  0.258448511
   1541, -0.133417919,  0.266777873
   1542,  -0.13788946,  0.275107235
   1543, -0.142360985,  0.283436596
   1544, -0.146832511,  0.291765958
   1545, -0.151304036,   0.30009532
   1546, -0.155775562,  0.308424681
   1547, -0.160247087,  0.316754043
   1548, -0.164718613,  0.325083405
   1549, -0.169190139,  0.333412766
   1550, -0.173661679,  0.341742128
   1551, -0.178133205,   0.35007149
   1552,  -0.18260473,  0.358400851
   1553, -0.187076256,  0.366730213
   1554, -0.191547781,  0.375059575
   1555, -0.196019307,  0.383388937
   1556, -0.200490832,  0.391718298
   1557, -0.204962358,   0.40004766
   1558, -0.209433883,  0.408377022
   1559, -0.213905424,  0.416706383
   1560, -0.218376949,  0.425035745
   1561, -0.222848475,  0.433365107
   1562, -0.227320001,  0.441694468
   1563, -0.231791526,   0.45002383
   1564, -0.236263052,  0.458353192
   1565, -0.240734577,  0.466682553
   1566, -0.245206103,  0.475011915
   1567, -0.249677628,  0.483341277
   1568, -0.254149169,  0.491670638
   1569, -0.0467618331, 0.0991094261
   1570, -0.0515347533,  0.107461318
   1571, -0.0563076735,  0.115813203
   1572, -0.0610805973,  0.124165088
   1573, -0.0658535212,   0.13251698
   1574, -0.0706264377,  0.140868858
   1575, -0.0753993616,   0.14922075
   1576, -0.0801722854,  0.157572642
   1577, -0.0849452019,  0.165924519
   1578, -0.0897181258,  0.174276412
   1579, -0.0944910496,  0.182628304
   1580, -0.0992639661,  0.190980181
   1581,  -0.10403689,  0.199332073
   1582, -0.108809814,  0.207683966
   1583, -0.113582738,  0.216035843
   1584, -0.118355654,  0.224387735
   1585, -0.123128578,  0.232739612
   1586, -0.127901495,  0.241091505
   1587, -0.132674426,  0.249443397
   1588, -0.137447342,  0.257795274
   1589, -0.142220259,  0.266147166
   1590,  -0.14699319,  0.274499059
   1591, -0.151766106,  0.282850951
   1592, -0.156539023,  0.291202813
   1593, -0.161311954,  0.299554706
   1594, -0.166084871,  0.307906598
   1595, -0.170857787,   0.31625849
   1596, -0.175630718,  0.324610382
   1597, -0.180403635,  0.332962275
   1598, -0.185176551,  0.341314137
   1599, -0.189949483,  0.349666029
   1600, -0.194722399,  0.358017921
   1601,  -0.19949533,  0.366369814
   1602, -0.204268247,  0.374721706
   1603, -0.209041163,  0.383073598
   1604, -0.213814095,  0.391425461
   1605, -0.218587011,  0.399777353
   1606, -0.223359928,  0.408129245
   1607, -0.228132859,  0.416481137
   1608, -0.232905775,   0.42483303
   1609, -0.237678692,  0.433184892
   1610, -0.242451623,  0.441536784
   1611,  -0.24722454,  0.449888676
   1612, -0.251997471,  0.458240569
   1613, -0.256770372,  0.466592461
   1614, -0.261543304,  0.474944353
   1615, -0.266316235,  0.483296216
   1616, -0.271089137,  0.491648108
   1617, -0.0495061167, 0.0979629979
   1618, -0.054581061,  0.106338769
   1619, -0.0596560054,  0.114714541
   1620, -0.0647309497,  0.123090312
   1621, -0.0698058903,  0.131466076
   1622, -0.0748808384,  0.139841855
   1623, -0.079955779,  0.148217618
   1624, -0.0850307271,  0.156593397
   1625, -0.0901056677,  0.164969161
   1626, -0.0951806158,   0.17334494
   1627, -0.100255556,  0.181720704
   1628, -0.105330504,  0.190096483
   1629, -0.110405445,  0.198472247
   1630, -0.115480393,  0.206848025
   1631, -0.120555334,  0.215223789
   1632, -0.125630274,  0.223599553
   1633, -0.130705222,  0.231975332
   1634, -0.135780171,  0.240351096
   1635, -0.140855119,  0.248726875
   1636, -0.145930067,  0.257102638
   1637,    -0.151005,  0.265478402
   1638, -0.156079948,  0.273854196
   1639, -0.161154896,   0.28222996
   1640, -0.166229844,  0.290605724
   1641, -0.171304777,  0.298981488
   1642, -0.176379725,  0.307357281
   1643, -0.181454673,  0.315733045
   1644, -0.186529621,  0.324108809
   1645, -0.191604555,  0.332484573
   1646, -0.196679503,  0.340860367
   1647, -0.201754451,  0.349236131
   1648, -0.206829399,  0.357611895
   1649, -0.211904332,  0.365987659
   1650,  -0.21697928,  0.374363422
   1651, -0.222054228,  0.382739216
   1652, -0.227129176,   0.39111498
   1653, -0.232204109,  0.399490744
   1654, -0.237279058,  0.407866508
   1655, -0.242354006,  0.416242301
   1656, -0.247428954,  0.424618065
   1657, -0.252503902,  0.432993829
   1658,  -0.25757885,  0.441369593
   1659, -0.262653768,  0.449745387
   1660, -0.267728716,  0.458121151
   1661, -0.272803664,  0.466496915
   1662, -0.277878612,  0.474872679
   1663,  -0.28295356,  0.483248472
   1664, -0.288028508,  0.491624236
   1665, -0.0522184782, 0.0967521966
   1666, -0.0575961098,  0.105153196
   1667, -0.0629737377,  0.113554195
   1668, -0.0683513731,  0.121955186
   1669, -0.0737290084,  0.130356178
   1670, -0.0791066363,  0.138757184
   1671, -0.0844842717,  0.147158176
   1672, -0.0898618996,  0.155559167
   1673, -0.095239535,  0.163960174
   1674,  -0.10061717,  0.172361165
   1675, -0.105994798,  0.180762157
   1676, -0.111372434,  0.189163148
   1677, -0.116750062,  0.197564155
   1678, -0.122127697,  0.205965146
   1679, -0.127505332,  0.214366138
   1680, -0.132882968,  0.222767144
   1681, -0.138260588,  0.231168136
   1682, -0.143638223,  0.239569128
   1683, -0.149015859,  0.247970119
   1684, -0.154393494,  0.256371111
   1685, -0.159771129,  0.264772117
   1686,  -0.16514875,  0.273173124
   1687, -0.170526385,    0.2815741
   1688, -0.175904021,  0.289975107
   1689, -0.181281656,  0.298376113
   1690, -0.186659291,   0.30677709
   1691, -0.192036912,  0.315178096
   1692, -0.197414547,  0.323579073
   1693, -0.202792183,  0.331980079
   1694, -0.208169818,  0.340381086
   1695, -0.213547453,  0.348782063
   1696, -0.218925074,  0.357183069
   1697, -0.224302709,  0.365584075
   1698, -0.229680344,  0.373985052
   1699,  -0.23505798,  0.382386059
   1700,   -0.2404356,  0.390787065
   1701, -0.245813236,  0.399188042
   1702, -0.251190871,  0.407589048
   1703, -0.256568491,  0.415990055
   1704, -0.261946142,  0.424391031
   1705, -0.267323762,  0.432792038
   1706, -0.272701412,  0.441193014
   1707, -0.278079033,  0.449594021
   1708, -0.283456653,  0.457995027
   1709, -0.288834304,  0.466396004
   1710, -0.294211924,   0.47479701
   1711, -0.299589574,  0.483198017
   1712, -0.304967195,  0.491598994
   1713, -0.0548971854, 0.0954779238
   1714, -0.0605782047,  0.103905469
   1715, -0.0662592277,  0.112333015
   1716, -0.0719402507,   0.12076056
   1717, -0.0776212662,  0.129188105
   1718, -0.0833022892,  0.137615636
   1719, -0.0889833122,  0.146043181
   1720, -0.0946643353,  0.154470727
   1721, -0.100345358,  0.162898272
   1722, -0.106026374,  0.171325818
   1723, -0.111707397,  0.179753363
   1724,  -0.11738842,  0.188180909
   1725, -0.123069443,  0.196608439
   1726, -0.128750458,  0.205035985
   1727, -0.134431481,   0.21346353
   1728, -0.140112504,  0.221891075
   1729, -0.145793527,  0.230318621
   1730,  -0.15147455,  0.238746166
   1731, -0.157155573,  0.247173712
   1732, -0.162836596,  0.255601257
   1733, -0.168517604,  0.264028788
   1734, -0.174198627,  0.272456348
   1735,  -0.17987965,  0.280883878
   1736, -0.185560673,  0.289311409
   1737, -0.191241696,  0.297738969
   1738, -0.196922719,    0.3061665
   1739, -0.202603742,   0.31459406
   1740, -0.208284765,  0.323021591
   1741, -0.213965774,  0.331449151
   1742, -0.219646797,  0.339876682
   1743,  -0.22532782,  0.348304212
   1744, -0.231008843,  0.356731772
   1745, -0.236689866,  0.365159303
   1746, -0.242370889,  0.373586863
   1747, -0.248051912,  0.382014394
   1748,  -0.25373292,  0.390441924
   1749, -0.259413958,  0.398869485
   1750, -0.265094966,  0.407297015
   1751, -0.270776004,  0.415724576
   1752, -0.276457012,  0.424152106
   1753,  -0.28213805,  0.432579666
   1754, -0.287819058,  0.441007197
   1755, -0.293500066,  0.449434727
   1756, -0.299181104,  0.457862288
   1757, -0.304862112,  0.466289818
   1758,  -0.31054315,  0.474717379
   1759, -0.316224158,  0.483144909
   1760, -0.321905196,  0.491572469
   1761, -0.0575405322, 0.0941411108
   1762, -0.0635256767,  0.102596506
   1763, -0.069510825,  0.111051895
   1764, -0.0754959732,   0.11950729
   1765, -0.0814811215,  0.127962679
   1766, -0.0874662697,  0.136418074
   1767, -0.093451418,   0.14487347
   1768, -0.0994365588,  0.153328866
   1769, -0.105421707,  0.161784261
   1770, -0.111406855,  0.170239657
   1771, -0.117392004,  0.178695053
   1772, -0.123377152,  0.187150434
   1773,   -0.1293623,  0.195605829
   1774, -0.135347441,  0.204061225
   1775, -0.141332597,  0.212516621
   1776, -0.147317737,  0.220972016
   1777, -0.153302878,  0.229427412
   1778, -0.159288034,  0.237882808
   1779, -0.165273175,  0.246338189
   1780,  -0.17125833,  0.254793584
   1781, -0.177243471,   0.26324898
   1782, -0.183228612,  0.271704376
   1783, -0.189213768,  0.280159771
   1784, -0.195198908,  0.288615167
   1785, -0.201184064,  0.297070563
   1786, -0.207169205,  0.305525959
   1787, -0.213154361,  0.313981354
   1788, -0.219139501,   0.32243675
   1789, -0.225124642,  0.330892116
   1790, -0.231109798,  0.339347512
   1791, -0.237094939,  0.347802907
   1792, -0.243080094,  0.356258303
   1793, -0.249065235,  0.364713699
   1794, -0.255050391,  0.373169094
   1795, -0.261035532,   0.38162449
   1796, -0.267020673,  0.390079886
   1797, -0.273005813,  0.398535281
   1798, -0.278990984,  0.406990677
   1799, -0.284976125,  0.415446073
   1800, -0.290961266,  0.423901469
   1801, -0.296946406,  0.432356864
   1802, -0.302931547,   0.44081226
   1803, -0.308916718,  0.449267626
   1804, -0.314901859,  0.457723022
   1805, -0.320886999,  0.466178417
   1806,  -0.32687214,  0.474633813
   1807, -0.332857281,  0.483089209
   1808, -0.338842452,  0.491544604
   1809, -0.0601468422, 0.0927427337
   1810, -0.0664368868,  0.101227261
   1811, -0.0727269277,  0.109711789
   1812, -0.0790169761,  0.118196316
   1813, -0.085307017,  0.126680836
   1814, -0.0915970653,  0.135165364
   1815, -0.0978871062,  0.143649891
   1816, -0.104177147,  0.152134418
   1817, -0.110467196,  0.160618946
   1818, -0.116757236,  0.169103473
   1819, -0.123047285,  0.177588001
   1820, -0.129337326,  0.186072528
   1821, -0.135627374,  0.194557056
   1822, -0.141917422,  0.203041583
   1823, -0.148207456,  0.211526096
   1824, -0.154497504,  0.220010623
   1825, -0.160787553,  0.228495151
   1826, -0.167077586,  0.236979678
   1827, -0.173367634,  0.245464206
   1828, -0.179657683,  0.253948748
   1829, -0.185947731,  0.262433261
   1830, -0.192237765,  0.270917773
   1831, -0.198527813,  0.279402316
   1832, -0.204817861,  0.287886828
   1833,  -0.21110791,  0.296371371
   1834, -0.217397943,  0.304855883
   1835, -0.223687991,  0.313340425
   1836,  -0.22997804,  0.321824938
   1837, -0.236268073,   0.33030948
   1838, -0.242558122,  0.338793993
   1839,  -0.24884817,  0.347278535
   1840, -0.255138218,  0.355763048
   1841, -0.261428267,   0.36424759
   1842, -0.267718315,  0.372732103
   1843, -0.274008334,  0.381216645
   1844, -0.280298382,  0.389701158
   1845,  -0.28658843,   0.39818567
   1846, -0.292878479,  0.406670213
   1847, -0.299168527,  0.415154725
   1848, -0.305458575,  0.423639268
   1849, -0.311748624,   0.43212378
   1850, -0.318038642,  0.440608323
   1851, -0.324328691,  0.449092835
   1852, -0.330618739,  0.457577378
   1853, -0.336908787,   0.46606189
   1854, -0.343198836,  0.474546432
   1855, -0.349488884,  0.483030945
   1856, -0.355778933,  0.491515487
   1857, -0.0627144575, 0.0912838206
   1858, -0.0693102032,  0.099798739
   1859, -0.0759059489,  0.108313657
   1860, -0.0825016946,  0.116828583
   1861, -0.0890974477,  0.125343502
   1862, -0.0956931934,  0.133858427
   1863, -0.102288939,  0.142373338
   1864, -0.108884685,  0.150888264
   1865, -0.115480438,   0.15940319
   1866, -0.122076184,  0.167918101
   1867, -0.128671929,  0.176433027
   1868, -0.135267675,  0.184947938
   1869, -0.141863421,  0.193462864
   1870, -0.148459181,  0.201977789
   1871, -0.155054927,    0.2104927
   1872, -0.161650673,  0.219007626
   1873, -0.168246418,  0.227522552
   1874, -0.174842164,  0.236037463
   1875,  -0.18143791,  0.244552389
   1876, -0.188033655,  0.253067315
   1877, -0.194629416,  0.261582226
   1878, -0.201225162,  0.270097136
   1879, -0.207820907,  0.278612077
   1880, -0.214416653,  0.287126988
   1881, -0.221012399,  0.295641899
   1882, -0.227608144,   0.30415684
   1883,  -0.23420389,  0.312671751
   1884, -0.240799636,  0.321186662
   1885, -0.247395396,  0.329701602
   1886, -0.253991127,  0.338216513
   1887, -0.260586888,  0.346731424
   1888, -0.267182648,  0.355246365
   1889, -0.273778379,  0.363761276
   1890,  -0.28037414,  0.372276187
   1891,  -0.28696987,  0.380791128
   1892, -0.293565631,  0.389306039
   1893, -0.300161362,   0.39782095
   1894, -0.306757122,   0.40633589
   1895, -0.313352853,  0.414850801
   1896, -0.319948614,  0.423365712
   1897, -0.326544374,  0.431880623
   1898, -0.333140105,  0.440395564
   1899, -0.339735866,  0.448910475
   1900, -0.346331596,  0.457425386
   1901, -0.352927357,  0.465940326
   1902, -0.359523088,  0.474455237
   1903, -0.366118848,  0.482970148
   1904, -0.372714609,  0.491485089
   1905, -0.0652417466, 0.0897654369
   1906, -0.072144039, 0.0983119905
   1907, -0.0790463313,  0.106858544
   1908, -0.0859486237,  0.115405098
   1909, -0.0928509161,  0.123951651
   1910, -0.0997532085,  0.132498205
   1911, -0.106655493,  0.141044766
   1912, -0.113557786,  0.149591312
   1913, -0.120460078,  0.158137873
   1914,  -0.12736237,  0.166684419
   1915, -0.134264663,   0.17523098
   1916, -0.141166955,  0.183777526
   1917, -0.148069248,  0.192324087
   1918,  -0.15497154,  0.200870633
   1919, -0.161873832,  0.209417194
   1920,  -0.16877611,   0.21796374
   1921, -0.175678402,  0.226510286
   1922, -0.182580695,  0.235056847
   1923, -0.189482987,  0.243603393
   1924, -0.196385279,   0.25214994
   1925, -0.203287572,  0.260696501
   1926, -0.210189864,  0.269243062
   1927, -0.217092156,  0.277789623
   1928, -0.223994449,  0.286336154
   1929, -0.230896741,  0.294882715
   1930, -0.237799034,  0.303429276
   1931, -0.244701326,  0.311975837
   1932, -0.251603603,  0.320522368
   1933, -0.258505911,  0.329068929
   1934, -0.265408188,   0.33761549
   1935, -0.272310495,  0.346162051
   1936, -0.279212773,  0.354708582
   1937,  -0.28611508,  0.363255143
   1938, -0.293017358,  0.371801704
   1939, -0.299919635,  0.380348265
   1940, -0.306821942,  0.388894796
   1941,  -0.31372422,  0.397441357
   1942, -0.320626527,  0.405987918
   1943, -0.327528805,  0.414534479
   1944, -0.334431112,  0.423081011
   1945, -0.341333389,  0.431627572
   1946, -0.348235697,  0.440174133
   1947, -0.355137974,  0.448720694
   1948, -0.362040281,  0.457267225
   1949, -0.368942559,  0.465813786
   1950, -0.375844836,  0.474360347
   1951, -0.382747144,  0.482906908
   1952, -0.389649421,  0.491453439
   1953, -0.0677271262, 0.0881887078
   1954, -0.074936837,  0.096768111
   1955, -0.0821465477,  0.105347514
   1956, -0.0893562511,  0.113926917
   1957, -0.0965659618,  0.122506313
   1958, -0.103775665,  0.131085724
   1959, -0.110985376,  0.139665127
   1960, -0.118195087,  0.148244515
   1961,  -0.12540479,  0.156823918
   1962, -0.132614493,  0.165403321
   1963, -0.139824212,  0.173982725
   1964, -0.147033915,  0.182562128
   1965, -0.154243618,  0.191141531
   1966, -0.161453336,  0.199720934
   1967,  -0.16866304,  0.208300337
   1968, -0.175872743,   0.21687974
   1969, -0.183082461,  0.225459144
   1970, -0.190292165,  0.234038547
   1971, -0.197501868,   0.24261795
   1972, -0.204711571,  0.251197338
   1973,  -0.21192129,  0.259776741
   1974, -0.219130993,  0.268356144
   1975, -0.226340696,  0.276935548
   1976, -0.233550414,  0.285514951
   1977, -0.240760118,  0.294094354
   1978, -0.247969821,  0.302673757
   1979, -0.255179524,   0.31125316
   1980, -0.262389243,  0.319832563
   1981, -0.269598961,  0.328411967
   1982, -0.276808649,   0.33699137
   1983, -0.284018368,  0.345570773
   1984, -0.291228086,  0.354150176
   1985, -0.298437774,  0.362729579
   1986, -0.305647492,  0.371308982
   1987, -0.312857181,  0.379888386
   1988, -0.320066899,  0.388467789
   1989, -0.327276617,  0.397047192
   1990, -0.334486306,  0.405626565
   1991, -0.341696024,  0.414205968
   1992, -0.348905742,  0.422785372
   1993, -0.356115431,  0.431364775
   1994, -0.363325149,  0.439944178
   1995, -0.370534867,  0.448523581
   1996, -0.377744555,  0.457102984
   1997, -0.384954274,  0.465682387
   1998, -0.392163992,  0.474261791
   1999,  -0.39937368,  0.482841194
   2000, -0.406583399,  0.491420597
   2001, -0.0701690316, 0.0865547806
   2002, -0.0776870623, 0.0951682255
   2003, -0.085205093,  0.103781663
   2004, -0.0927231237,  0.112395108
   2005, -0.100241154,  0.121008545
   2006, -0.107759185,  0.129621997
   2007, -0.115277208,  0.138235435
   2008, -0.122795239,  0.146848872
   2009, -0.130313277,   0.15546231
   2010,   -0.1378313,  0.164075762
   2011, -0.145349339,  0.172689199
   2012, -0.152867362,  0.181302637
   2013,   -0.1603854,  0.189916089
   2014, -0.167903423,  0.198529527
   2015, -0.175421447,  0.207142964
   2016, -0.182939485,  0.215756416
   2017, -0.190457508,  0.224369854
   2018, -0.197975546,  0.232983291
   2019, -0.205493569,  0.241596743
   2020, -0.213011608,  0.250210166
   2021, -0.220529631,  0.258823633
   2022, -0.228047669,  0.267437071
   2023, -0.235565692,  0.276050508
   2024,  -0.24308373,  0.284663945
   2025, -0.250601768,  0.293277383
   2026, -0.258119792,   0.30189082
   2027, -0.265637815,  0.310504287
   2028, -0.273155838,  0.319117725
   2029, -0.280673891,  0.327731162
   2030, -0.288191915,    0.3363446
   2031, -0.295709938,  0.344958037
   2032, -0.303227961,  0.353571475
   2033, -0.310745984,  0.362184912
   2034, -0.318264037,  0.370798379
   2035, -0.325782061,  0.379411817
   2036, -0.333300084,  0.388025254
   2037, -0.340818107,  0.396638691
   2038,  -0.34833616,  0.405252129
   2039, -0.355854183,  0.413865566
   2040, -0.363372207,  0.422479033
   2041,  -0.37089023,  0.431092471
   2042, -0.378408283,  0.439705908
   2043, -0.385926306,  0.448319346
   2044,  -0.39344433,  0.456932783
   2045, -0.400962353,  0.465546221
   2046, -0.408480406,  0.474159688
   2047, -0.415998429,  0.482773125
   2048, -0.423516452,  0.491386563
   2049, -0.0725659207, 0.0848648548
   2050, -0.0803932101, 0.0935135037
   2051, -0.0882204995,  0.102162153
   2052, -0.0960477889,  0.110810801
   2053, -0.103875078,   0.11945945
   2054, -0.111702368,  0.128108099
   2055, -0.119529665,  0.136756748
   2056, -0.127356946,  0.145405397
   2057, -0.135184243,  0.154054046
   2058,  -0.14301154,  0.162702695
   2059, -0.150838822,  0.171351343
   2060, -0.158666119,  0.179999992
   2061, -0.166493401,  0.188648641
   2062, -0.174320698,   0.19729729
   2063,  -0.18214798,  0.205945939
   2064, -0.189975277,  0.214594588
   2065, -0.197802573,  0.223243237
   2066, -0.205629855,  0.231891885
   2067, -0.213457152,  0.240540534
   2068, -0.221284434,  0.249189183
   2069, -0.229111731,  0.257837832
   2070, -0.236939013,  0.266486466
   2071,  -0.24476631,   0.27513513
   2072, -0.252593607,  0.283783764
   2073, -0.260420889,  0.292432427
   2074, -0.268248171,  0.301081061
   2075, -0.276075482,  0.309729725
   2076, -0.283902764,  0.318378359
   2077, -0.291730046,  0.327027023
   2078, -0.299557328,  0.335675657
   2079,  -0.30738464,  0.344324321
   2080, -0.315211922,  0.352972955
   2081, -0.323039204,  0.361621618
   2082, -0.330866516,  0.370270252
   2083, -0.338693798,  0.378918916
   2084,  -0.34652108,   0.38756755
   2085, -0.354348361,  0.396216214
   2086, -0.362175673,  0.404864848
   2087, -0.370002955,  0.413513511
   2088, -0.377830237,  0.422162145
   2089, -0.385657549,  0.430810809
   2090, -0.393484831,  0.439459443
   2091, -0.401312113,  0.448108107
   2092, -0.409139425,  0.456756741
   2093, -0.416966707,  0.465405405
   2094, -0.424793988,  0.474054039
   2095,  -0.43262127,  0.482702702
   2096, -0.440448582,  0.491351336
   2097, -0.0749162957, 0.0831201673
   2098, -0.0830538124, 0.0918051675
   2099, -0.0911913365,   0.10049016
   2100, -0.0993288532,  0.109175161
   2101, -0.107466377,  0.117860153
   2102, -0.115603894,  0.126545146
   2103, -0.123741411,  0.135230154
   2104, -0.131878927,  0.143915147
   2105, -0.140016451,  0.152600139
   2106, -0.148153976,  0.161285132
   2107,   -0.1562915,   0.16997014
   2108, -0.164429009,  0.178655133
   2109, -0.172566533,  0.187340125
   2110, -0.180704057,  0.196025118
   2111, -0.188841566,  0.204710126
   2112, -0.196979091,  0.213395119
   2113, -0.205116615,  0.222080112
   2114, -0.213254124,  0.230765104
   2115, -0.221391648,  0.239450112
   2116, -0.229529172,  0.248135105
   2117, -0.237666696,  0.256820112
   2118, -0.245804206,  0.265505105
   2119, -0.253941715,  0.274190098
   2120, -0.262079239,  0.282875091
   2121, -0.270216763,  0.291560084
   2122, -0.278354287,  0.300245076
   2123, -0.286491811,  0.308930069
   2124, -0.294629335,  0.317615062
   2125,  -0.30276686,  0.326300085
   2126, -0.310904354,  0.334985077
   2127, -0.319041878,   0.34367007
   2128, -0.327179402,  0.352355063
   2129, -0.335316926,  0.361040056
   2130,  -0.34345445,  0.369725049
   2131, -0.351591974,  0.378410041
   2132, -0.359729499,  0.387095034
   2133, -0.367866993,  0.395780057
   2134, -0.376004517,   0.40446505
   2135, -0.384142041,  0.413150042
   2136, -0.392279565,  0.421835035
   2137, -0.400417089,  0.430520028
   2138, -0.408554614,  0.439205021
   2139, -0.416692138,  0.447890013
   2140, -0.424829632,  0.456575006
   2141, -0.432967156,  0.465260029
   2142,  -0.44110468,  0.473945022
   2143, -0.449242204,  0.482630014
   2144, -0.457379729,  0.491315007
   2145, -0.0772186965, 0.0813220069
   2146, -0.0856674463, 0.0900444686
   2147, -0.0941161886,  0.098766923
   2148, -0.102564938,  0.107489385
   2149, -0.111013688,  0.116211839
   2150, -0.119462438,  0.124934301
   2151,  -0.12791118,  0.133656755
   2152,  -0.13635993,  0.142379209
   2153,  -0.14480868,  0.151101679
   2154,  -0.15325743,  0.159824133
   2155, -0.161706179,  0.168546587
   2156, -0.170154929,  0.177269042
   2157, -0.178603679,  0.185991511
   2158, -0.187052429,  0.194713965
   2159, -0.195501179,  0.203436419
   2160, -0.203949928,  0.212158874
   2161, -0.212398663,  0.220881343
   2162, -0.220847413,  0.229603797
   2163, -0.229296163,  0.238326252
   2164, -0.237744913,  0.247048706
   2165, -0.246193662,   0.25577116
   2166, -0.254642427,  0.264493614
   2167, -0.263091147,  0.273216099
   2168, -0.271539897,  0.281938553
   2169, -0.279988647,  0.290661007
   2170, -0.288437396,  0.299383461
   2171, -0.296886146,  0.308105916
   2172, -0.305334896,   0.31682837
   2173, -0.313783646,  0.325550824
   2174, -0.322232395,  0.334273309
   2175, -0.330681145,  0.342995763
   2176, -0.339129895,  0.351718217
   2177, -0.347578645,  0.360440671
   2178, -0.356027395,  0.369163126
   2179, -0.364476144,   0.37788558
   2180, -0.372924894,  0.386608034
   2181, -0.381373644,  0.395330489
   2182, -0.389822394,  0.404052973
   2183, -0.398271143,  0.412775427
   2184, -0.406719893,  0.421497881
   2185, -0.415168643,  0.430220336
   2186, -0.423617393,   0.43894279
   2187, -0.432066143,  0.447665244
   2188, -0.440514892,  0.456387699
   2189, -0.448963612,  0.465110153
   2190, -0.457412362,  0.473832637
   2191, -0.465861112,  0.482555091
   2192, -0.474309862,  0.491277546
   2193, 0.0169447791,  0.491835982
   2194, 0.0166481771,  0.483671963
   2195, 0.0163515769,  0.475507945
   2196, 0.0160549767,  0.467343956
   2197, 0.0157583747,  0.459179938
   2198, 0.0154617745,  0.451015919
   2199, 0.0151651734,  0.442851901
   2200, 0.0148685724,  0.434687883
   2201, 0.0145719722,  0.426523864
   2202, 0.0142753711,  0.418359876
   2203,   0.01397877,  0.410195857
   2204, 0.0136821689,  0.402031839
   2205, 0.0133855687,  0.393867821
   2206, 0.0130889677,  0.385703802
   2207, 0.0127923666,  0.377539784
   2208, 0.0124957664,  0.369375795
   2209, 0.0121991653,  0.361211777
   2210, 0.0119025642,  0.353047758
   2211, 0.0116059631,   0.34488374
   2212, 0.0113093629,  0.336719722
   2213, 0.0110127619,  0.328555703
   2214, 0.0107161608,  0.320391685
   2215, 0.0104195606,  0.312227696
   2216, 0.0101229595,  0.304063678
   2217, 0.00982635841,  0.295899659
   2218, 0.00952975731,  0.287735641
   2219, 0.00923315715,  0.279571623
   2220, 0.00893655606,  0.271407604
   2221, 0.00863995496,  0.263243616
   2222, 0.00834335387,  0.255079597
   2223, 0.0080467537,  0.246915579
   2224, 0.00775015261,   0.23875156
   2225, 0.00745355198,  0.230587542
   2226, 0.00715695089,  0.222423539
   2227, 0.00686035026,   0.21425952
   2228, 0.00656374916,  0.206095502
   2229, 0.00626714854,  0.197931498
   2230, 0.00597054744,   0.18976748
   2231, 0.00567394681,  0.181603462
   2232, 0.00537734618,  0.173439458
   2233, 0.00508074509,   0.16527544
   2234, 0.00478414446,  0.157111421
   2235, 0.00448754337,  0.148947418
   2236, 0.00419094274,  0.140783399
   2237, 0.00389434188,  0.132619381
   2238, 0.00359774102,   0.12445537
   2239, 0.00330114015,  0.116291359
   2240, 0.00300453929,  0.108127341
   2241, 0.0338895172,  0.491833746
   2242, 0.0332962759,  0.483667493
   2243, 0.0327030309,  0.475501239
   2244, 0.0321097896,  0.467334956
   2245, 0.0315165482,  0.459168702
   2246, 0.0309233051,  0.451002449
   2247, 0.0303300638,  0.442836195
   2248, 0.0297368206,  0.434669942
   2249, 0.0291435793,  0.426503688
   2250, 0.0285503361,  0.418337405
   2251, 0.0279570948,  0.410171151
   2252, 0.0273638517,  0.402004898
   2253, 0.0267706104,  0.393838644
   2254, 0.0261773672,   0.38567239
   2255, 0.0255841259,  0.377506137
   2256, 0.0249908827,  0.369339854
   2257, 0.0243976414,    0.3611736
   2258, 0.0238043983,  0.353007346
   2259, 0.0232111569,  0.344841093
   2260, 0.0226179138,  0.336674839
   2261, 0.0220246725,  0.328508586
   2262, 0.0214314293,  0.320342302
   2263,  0.020838188,  0.312176049
   2264, 0.0202449467,  0.304009795
   2265, 0.0196517035,  0.295843542
   2266, 0.0190584622,  0.287677288
   2267, 0.0184652191,  0.279511034
   2268, 0.0178719778,  0.271344781
   2269, 0.0172787346,  0.263178498
   2270, 0.0166854933,  0.255012244
   2271, 0.0160922501,   0.24684599
   2272, 0.0154990079,  0.238679737
   2273, 0.0149057657,  0.230513468
   2274, 0.0143125234,  0.222347215
   2275, 0.0137192821,  0.214180961
   2276, 0.0131260399,  0.206014693
   2277, 0.0125327976,  0.197848439
   2278, 0.0119395554,  0.189682186
   2279, 0.0113463132,  0.181515932
   2280, 0.0107530709,  0.173349664
   2281, 0.0101598287,   0.16518341
   2282, 0.00956658646,  0.157017156
   2283, 0.00897334423,  0.148850888
   2284, 0.00838010199,  0.140684634
   2285, 0.00778685976,  0.132518381
   2286, 0.00719361752,   0.12435212
   2287, 0.00660037529,  0.116185859
   2288, 0.00600713305,  0.108019598
   2289, 0.0508341715,  0.491829991
   2290, 0.0499442071,  0.483660012
   2291, 0.0490542427,  0.475490004
   2292, 0.0481642783,  0.467319995
   2293, 0.0472743139,  0.459150016
   2294, 0.0463843495,  0.450980008
   2295, 0.0454943851,  0.442810029
   2296, 0.0446044207,   0.43464002
   2297, 0.0437144563,  0.426470011
   2298, 0.0428244919,  0.418300033
   2299, 0.0419345275,  0.410130024
   2300, 0.0410445631,  0.401960015
   2301, 0.0401545987,  0.393790036
   2302, 0.0392646343,  0.385620028
   2303, 0.0383746698,  0.377450049
   2304, 0.0374847054,   0.36928004
   2305,  0.036594741,  0.361110032
   2306, 0.0357047766,  0.352940053
   2307, 0.0348148122,  0.344770044
   2308, 0.0339248441,  0.336600035
   2309, 0.0330348797,  0.328430057
   2310, 0.0321449153,  0.320260048
   2311, 0.0312549509,  0.312090069
   2312, 0.0303649884,   0.30392006
   2313, 0.0294750221,  0.295750052
   2314, 0.0285850577,  0.287580073
   2315, 0.0276950933,  0.279410064
   2316, 0.0268051289,  0.271240056
   2317, 0.0259151645,  0.263070077
   2318, 0.0250252001,  0.254900068
   2319, 0.0241352357,  0.246730074
   2320, 0.0232452713,  0.238560081
   2321, 0.0223553069,  0.230390087
   2322, 0.0214653406,  0.222220078
   2323, 0.0205753762,  0.214050084
   2324, 0.0196854118,  0.205880091
   2325, 0.0187954474,  0.197710097
   2326,  0.017905483,  0.189540088
   2327, 0.0170155186,  0.181370094
   2328, 0.0161255542,  0.173200101
   2329, 0.0152355889,  0.165030107
   2330, 0.0143456245,  0.156860098
   2331, 0.0134556601,  0.148690104
   2332, 0.0125656957,  0.140520111
   2333, 0.0116757313,  0.132350102
   2334, 0.0107857659,  0.124180108
   2335, 0.00989580154,  0.116010115
   2336, 0.00900583714,  0.107840113
   2337, 0.0677787066,  0.491824776
   2338, 0.0665919036,  0.483649552
   2339, 0.0654050931,  0.475474328
   2340, 0.0642182827,  0.467299074
   2341, 0.0630314723,   0.45912385
   2342, 0.0618446656,  0.450948626
   2343, 0.0606578588,  0.442773402
   2344, 0.0594710484,  0.434598178
   2345, 0.0582842417,  0.426422954
   2346, 0.0570974313,    0.4182477
   2347, 0.0559106246,  0.410072476
   2348, 0.0547238141,  0.401897252
   2349, 0.0535370074,  0.393722028
   2350,  0.052350197,  0.385546803
   2351, 0.0511633903,  0.377371579
   2352, 0.0499765798,  0.369196355
   2353, 0.0487897731,  0.361021101
   2354, 0.0476029664,  0.352845877
   2355,  0.046416156,  0.344670653
   2356, 0.0452293493,  0.336495429
   2357, 0.0440425389,  0.328320205
   2358, 0.0428557321,  0.320144981
   2359, 0.0416689217,  0.311969727
   2360,  0.040482115,  0.303794503
   2361, 0.0392953046,  0.295619279
   2362, 0.0381084979,  0.287444055
   2363, 0.0369216874,  0.279268831
   2364, 0.0357348807,  0.271093607
   2365, 0.0345480703,  0.262918383
   2366, 0.0333612636,  0.254743129
   2367, 0.0321744531,  0.246567905
   2368, 0.0309876464,  0.238392681
   2369, 0.0298008379,  0.230217457
   2370, 0.0286140293,  0.222042233
   2371, 0.0274272207,  0.213866994
   2372, 0.0262404121,   0.20569177
   2373, 0.0250536036,  0.197516546
   2374,  0.023866795,  0.189341307
   2375, 0.0226799864,  0.181166083
   2376, 0.0214931779,  0.172990859
   2377, 0.0203063693,   0.16481562
   2378, 0.0191195607,  0.156640396
   2379, 0.0179327521,  0.148465171
   2380, 0.0167459436,  0.140289932
   2381, 0.0155591359,  0.132114708
   2382, 0.0143723274,  0.123939484
   2383, 0.0131855188,  0.115764253
   2384, 0.0119987102,  0.107589021
   2385, 0.0847230852,  0.491818041
   2386, 0.0832392648,  0.483636111
   2387, 0.0817554519,  0.475454152
   2388, 0.0802716389,  0.467272222
   2389,  0.078787826,  0.459090263
   2390, 0.0773040131,  0.450908303
   2391, 0.0758202001,  0.442726374
   2392, 0.0743363798,  0.434544414
   2393, 0.0728525668,  0.426362485
   2394, 0.0713687539,  0.418180525
   2395,  0.069884941,  0.409998566
   2396, 0.0684011281,  0.401816636
   2397, 0.0669173151,  0.393634677
   2398, 0.0654334947,  0.385452718
   2399, 0.0639496818,  0.377270788
   2400, 0.0624658689,  0.369088829
   2401,  0.060982056,  0.360906899
   2402,  0.059498243,   0.35272494
   2403, 0.0580144264,   0.34454298
   2404, 0.0565306135,  0.336361051
   2405, 0.0550467968,  0.328179091
   2406, 0.0535629839,  0.319997162
   2407, 0.0520791709,  0.311815202
   2408, 0.0505953543,  0.303633243
   2409, 0.0491115414,  0.295451313
   2410, 0.0476277284,  0.287269354
   2411, 0.0461439118,  0.279087424
   2412, 0.0446600989,  0.270905465
   2413, 0.0431762859,  0.262723505
   2414, 0.0416924693,  0.254541576
   2415, 0.0402086563,  0.246359617
   2416, 0.0387248434,  0.238177672
   2417, 0.0372410268,  0.229995728
   2418, 0.0357572138,  0.221813783
   2419, 0.0342734009,  0.213631824
   2420, 0.0327895842,  0.205449879
   2421, 0.0313057713,  0.197267935
   2422, 0.0298219565,   0.18908599
   2423, 0.0283381436,  0.180904031
   2424, 0.0268543288,  0.172722086
   2425,  0.025370514,  0.164540142
   2426, 0.0238867011,  0.156358197
   2427, 0.0224028863,  0.148176253
   2428, 0.0209190715,  0.139994293
   2429, 0.0194352586,  0.131812349
   2430, 0.0179514438,  0.123630404
   2431,  0.016467629,  0.115448453
   2432, 0.0149838151,  0.107266508
   2433,  0.101667255,  0.491809845
   2434, 0.0998862311,   0.48361969
   2435, 0.0981052071,  0.475429565
   2436, 0.0963241905,   0.46723941
   2437, 0.0945431665,  0.459049255
   2438, 0.0927621424,    0.4508591
   2439, 0.0909811258,  0.442668945
   2440, 0.0892001018,   0.43447879
   2441, 0.0874190778,  0.426288664
   2442, 0.0856380537,  0.418098509
   2443, 0.0838570371,  0.409908354
   2444, 0.0820760131,  0.401718199
   2445,  0.080294989,  0.393528044
   2446,  0.078513965,  0.385337889
   2447, 0.0767329484,  0.377147764
   2448, 0.0749519244,  0.368957609
   2449, 0.0731709003,  0.360767454
   2450, 0.0713898838,  0.352577299
   2451, 0.0696088597,  0.344387144
   2452, 0.0678278357,  0.336196989
   2453, 0.0660468116,  0.328006864
   2454, 0.0642657951,  0.319816709
   2455,  0.062484771,  0.311626554
   2456,  0.060703747,  0.303436399
   2457, 0.0589227267,  0.295246243
   2458, 0.0571417063,  0.287056088
   2459, 0.0553606823,  0.278865963
   2460,  0.053579662,  0.270675808
   2461,  0.051798638,  0.262485653
   2462, 0.0500176176,  0.254295498
   2463, 0.0482365936,  0.246105358
   2464, 0.0464555733,  0.237915203
   2465, 0.0446745493,  0.229725048
   2466, 0.0428935289,  0.221534908
   2467, 0.0411125086,  0.213344753
   2468, 0.0393314846,  0.205154598
   2469, 0.0375504643,  0.196964458
   2470, 0.0357694402,  0.188774303
   2471, 0.0339884199,  0.180584148
   2472, 0.0322073959,  0.172394007
   2473, 0.0304263756,  0.164203852
   2474, 0.0286453534,  0.156013697
   2475, 0.0268643312,  0.147823557
   2476,  0.025083309,  0.139633402
   2477, 0.0233022869,  0.131443247
   2478, 0.0215212647,    0.1232531
   2479, 0.0197402444,  0.115062952
   2480, 0.0179592222,  0.106872804
   2481,  0.118611187,  0.491800159
   2482,  0.116532713,  0.483600348
   2483,   0.11445424,  0.475400507
   2484,  0.112375766,  0.467200696
   2485,  0.110297292,  0.459000856
   2486,  0.108218826,  0.450801015
   2487,  0.106140353,  0.442601204
   2488,  0.104061879,  0.434401363
   2489,  0.101983406,  0.426201522
   2490, 0.0999049395,  0.418001711
   2491,  0.097826466,  0.409801871
   2492, 0.0957479924,   0.40160206
   2493, 0.0936695188,  0.393402219
   2494, 0.0915910453,  0.385202378
   2495, 0.0895125791,  0.377002567
   2496, 0.0874341056,  0.368802726
   2497,  0.085355632,  0.360602915
   2498, 0.0832771584,  0.352403075
   2499, 0.0811986923,  0.344203234
   2500, 0.0791202188,  0.336003423
   2501, 0.0770417452,  0.327803582
   2502, 0.0749632716,  0.319603771
   2503,  0.072884798,   0.31140393
   2504, 0.0708063319,  0.303204089
   2505, 0.0687278584,  0.295004278
   2506, 0.0666493848,  0.286804438
   2507, 0.0645709112,  0.278604597
   2508, 0.0624924414,  0.270404786
   2509, 0.0604139715,  0.262204945
   2510,  0.058335498,  0.254005134
   2511, 0.0562570281,  0.245805293
   2512, 0.0541785546,  0.237605467
   2513,  0.052100081,  0.229405642
   2514, 0.0500216112,  0.221205801
   2515, 0.0479431376,  0.213005975
   2516, 0.0458646677,  0.204806149
   2517, 0.0437861942,  0.196606323
   2518, 0.0417077243,  0.188406482
   2519, 0.0396292508,  0.180206656
   2520, 0.0375507809,  0.172006831
   2521, 0.0354723074,  0.163807005
   2522, 0.0333938338,  0.155607179
   2523, 0.0313153639,  0.147407338
   2524, 0.0292368922,  0.139207512
   2525, 0.0271584205,  0.131007686
   2526, 0.0250799488,  0.122807853
   2527, 0.0230014753,  0.114608027
   2528, 0.0209230036,  0.106408201
   2529,  0.135554835,  0.491789013
   2530,  0.133178622,  0.483578056
   2531,  0.130802423,  0.475367069
   2532,  0.128426224,  0.467156082
   2533,   0.12605001,  0.458945096
   2534,  0.123673812,  0.450734138
   2535,  0.121297605,  0.442523152
   2536,  0.118921407,  0.434312165
   2537,    0.1165452,  0.426101208
   2538,  0.114168994,  0.417890221
   2539,  0.111792795,  0.409679234
   2540,  0.109416589,  0.401468247
   2541,  0.107040383,   0.39325729
   2542,  0.104664177,  0.385046303
   2543,  0.102287978,  0.376835316
   2544, 0.0999117717,  0.368624359
   2545, 0.0975355655,  0.360413373
   2546, 0.0951593667,  0.352202386
   2547, 0.0927831605,  0.343991399
   2548, 0.0904069543,  0.335780442
   2549, 0.0880307555,  0.327569455
   2550, 0.0856545493,  0.319358468
   2551, 0.0832783431,  0.311147481
   2552, 0.0809021443,  0.302936524
   2553, 0.0785259381,  0.294725537
   2554, 0.0761497319,   0.28651455
   2555, 0.0737735331,  0.278303593
   2556, 0.0713973269,  0.270092607
   2557, 0.0690211207,   0.26188162
   2558, 0.0666449144,  0.253670633
   2559, 0.0642687157,  0.245459661
   2560, 0.0618925095,  0.237248689
   2561,  0.059516307,  0.229037717
   2562, 0.0571401007,   0.22082673
   2563, 0.0547638983,  0.212615758
   2564, 0.0523876958,  0.204404771
   2565, 0.0500114895,  0.196193799
   2566,  0.047635287,  0.187982813
   2567, 0.0452590846,  0.179771841
   2568, 0.0428828783,  0.171560869
   2569, 0.0405066758,  0.163349882
   2570, 0.0381304696,   0.15513891
   2571, 0.0357542671,  0.146927923
   2572, 0.0333780646,  0.138716951
   2573, 0.0310018603,  0.130505964
   2574, 0.0286256559,  0.122294992
   2575, 0.0262494516,  0.114084013
   2576, 0.0238732472,  0.105873033
   2577,  0.152498156,  0.491776407
   2578,  0.149823904,  0.483552814
   2579,  0.147149637,   0.47532922
   2580,  0.144475386,  0.467105657
   2581,  0.141801119,  0.458882064
   2582,  0.139126867,   0.45065847
   2583,  0.136452615,  0.442434877
   2584,  0.133778349,  0.434211284
   2585,  0.131104097,  0.425987691
   2586,   0.12842983,  0.417764097
   2587,  0.125755578,  0.409540504
   2588,  0.123081319,  0.401316941
   2589,  0.120407067,  0.393093348
   2590,  0.117732808,  0.384869754
   2591,  0.115058549,  0.376646161
   2592,   0.11238429,  0.368422568
   2593,   0.10971003,  0.360198975
   2594,  0.107035778,  0.351975381
   2595,  0.104361519,  0.343751788
   2596,   0.10168726,  0.335528225
   2597, 0.0990130007,  0.327304631
   2598, 0.0963387489,  0.319081038
   2599, 0.0936644897,  0.310857445
   2600, 0.0909902304,  0.302633852
   2601, 0.0883159712,  0.294410259
   2602,  0.085641712,  0.286186665
   2603, 0.0829674602,  0.277963072
   2604, 0.0802932009,  0.269739509
   2605, 0.0776189417,  0.261515915
   2606, 0.0749446824,  0.253292322
   2607, 0.0722704232,  0.245068729
   2608, 0.0695961714,  0.236845136
   2609, 0.0669219121,  0.228621542
   2610, 0.0642476529,  0.220397964
   2611, 0.0615733974,  0.212174371
   2612, 0.0588991381,  0.203950778
   2613, 0.0562248826,  0.195727184
   2614, 0.0535506234,  0.187503606
   2615, 0.0508763641,  0.179280013
   2616, 0.0482021086,   0.17105642
   2617, 0.0455278493,  0.162832826
   2618, 0.0428535938,  0.154609248
   2619, 0.0401793346,  0.146385655
   2620, 0.0375050791,  0.138162062
   2621, 0.0348308198,  0.129938468
   2622, 0.0321565606,  0.121714883
   2623,  0.029482305,  0.113491297
   2624, 0.0268080477,  0.105267704
   2625,  0.169441119,   0.49176234
   2626,  0.166468441,   0.48352468
   2627,  0.163495779,   0.47528705
   2628,  0.160523102,   0.46704939
   2629,  0.157550424,   0.45881173
   2630,  0.154577762,   0.45057407
   2631,  0.151605085,   0.44233644
   2632,  0.148632407,   0.43409878
   2633,  0.145659745,   0.42586112
   2634,  0.142687067,   0.41762346
   2635,   0.13971439,   0.40938583
   2636,  0.136741728,   0.40114817
   2637,   0.13376905,   0.39291051
   2638,  0.130796373,   0.38467285
   2639,   0.12782371,   0.37643519
   2640,  0.124851033,   0.36819756
   2641,  0.121878356,    0.3599599
   2642,  0.118905686,   0.35172224
   2643,  0.115933016,  0.343484581
   2644,  0.112960339,   0.33524695
   2645,  0.109987669,   0.32700929
   2646,  0.107014999,  0.318771631
   2647,  0.104042321,  0.310533971
   2648,  0.101069652,   0.30229634
   2649, 0.0980969742,  0.294058681
   2650, 0.0951243043,  0.285821021
   2651, 0.0921516344,  0.277583361
   2652,  0.089178957,  0.269345701
   2653, 0.0862062871,  0.261108071
   2654, 0.0832336172,  0.252870411
   2655, 0.0802609399,  0.244632751
   2656,   0.07728827,  0.236395106
   2657, 0.0743155926,  0.228157446
   2658, 0.0713429227,  0.219919801
   2659, 0.0683702528,  0.211682141
   2660, 0.0653975755,  0.203444496
   2661, 0.0624249056,  0.195206836
   2662,  0.059452232,  0.186969176
   2663, 0.0564795621,  0.178731531
   2664, 0.0535068884,  0.170493871
   2665, 0.0505342148,  0.162256226
   2666, 0.0475615412,  0.154018566
   2667, 0.0445888713,  0.145780921
   2668, 0.0416161977,  0.137543261
   2669, 0.0386435241,  0.129305616
   2670, 0.0356708504,  0.121067956
   2671, 0.0326981805,  0.112830304
   2672, 0.0297255069,  0.104592651
   2673,   0.18638368,  0.491746843
   2674,  0.183112189,  0.483493686
   2675,  0.179840714,  0.475240529
   2676,  0.176569223,  0.466987371
   2677,  0.173297733,  0.458734214
   2678,  0.170026243,  0.450481057
   2679,  0.166754752,    0.4422279
   2680,  0.163483262,  0.433974743
   2681,  0.160211787,  0.425721556
   2682,  0.156940296,  0.417468399
   2683,  0.153668806,  0.409215242
   2684,  0.150397316,  0.400962085
   2685,  0.147125825,  0.392708927
   2686,  0.143854335,   0.38445577
   2687,  0.140582845,  0.376202613
   2688,  0.137311369,  0.367949456
   2689,  0.134039879,  0.359696299
   2690,  0.130768389,  0.351443142
   2691,  0.127496898,  0.343189985
   2692,  0.124225408,  0.334936827
   2693,  0.120953925,   0.32668367
   2694,  0.117682435,  0.318430513
   2695,  0.114410944,  0.310177356
   2696,  0.111139461,  0.301924199
   2697,  0.107867971,  0.293671042
   2698,  0.104596481,  0.285417855
   2699,  0.101324998,  0.277164698
   2700, 0.0980535075,  0.268911541
   2701, 0.0947820172,  0.260658383
   2702, 0.0915105268,  0.252405226
   2703,  0.088239044,  0.244152069
   2704, 0.0849675536,  0.235898912
   2705, 0.0816960633,  0.227645755
   2706, 0.0784245804,  0.219392598
   2707, 0.0751530901,  0.211139441
   2708, 0.0718815997,  0.202886283
   2709, 0.0686101168,  0.194633126
   2710, 0.0653386265,  0.186379969
   2711, 0.0620671362,  0.178126797
   2712, 0.0587956496,   0.16987364
   2713, 0.0555241629,  0.161620483
   2714, 0.0522526726,  0.153367326
   2715,  0.048981186,  0.145114169
   2716, 0.0457096994,  0.136861011
   2717, 0.0424382091,  0.128607854
   2718, 0.0391667224,   0.12035469
   2719, 0.0358952321,  0.112101533
   2720, 0.0326237455,  0.103848375
   2721,  0.203325808,  0.491729915
   2722,  0.199755073,    0.4834598
   2723,  0.196184322,  0.475189716
   2724,  0.192613587,  0.466919631
   2725,  0.189042836,  0.458649516
   2726,  0.185472101,  0.450379431
   2727,  0.181901351,  0.442109317
   2728,  0.178330615,  0.433839232
   2729,  0.174759865,  0.425569147
   2730,  0.171189129,  0.417299032
   2731,  0.167618379,  0.409028947
   2732,  0.164047644,  0.400758862
   2733,  0.160476893,  0.392488748
   2734,  0.156906158,  0.384218663
   2735,  0.153335407,  0.375948578
   2736,  0.149764672,  0.367678463
   2737,  0.146193922,  0.359408379
   2738,  0.142623186,  0.351138294
   2739,  0.139052436,  0.342868179
   2740,    0.1354817,  0.334598094
   2741,   0.13191095,   0.32632798
   2742,  0.128340214,  0.318057895
   2743,  0.124769464,   0.30978781
   2744,  0.121198721,  0.301517695
   2745,  0.117627978,   0.29324761
   2746,  0.114057235,  0.284977525
   2747,  0.110486493,  0.276707411
   2748,   0.10691575,  0.268437326
   2749,  0.103345007,  0.260167241
   2750, 0.0997742638,  0.251897126
   2751, 0.0962035209,  0.243627042
   2752,  0.092632778,  0.235356942
   2753, 0.0890620351,  0.227086842
   2754, 0.0854912922,  0.218816757
   2755, 0.0819205493,  0.210546657
   2756, 0.0783498064,  0.202276558
   2757, 0.0747790635,  0.194006458
   2758, 0.0712083206,  0.185736373
   2759, 0.0676375777,  0.177466273
   2760, 0.0640668422,  0.169196174
   2761, 0.0604960956,  0.160926089
   2762, 0.0569253527,  0.152655989
   2763, 0.0533546098,  0.144385889
   2764, 0.0497838669,  0.136115789
   2765, 0.0462131239,  0.127845705
   2766,  0.042642381,  0.119575605
   2767, 0.0390716381,  0.111305505
   2768, 0.0355008952,  0.103035413
   2769,   0.22026746,  0.491711557
   2770,  0.216396973,  0.483423084
   2771,    0.2125265,  0.475134641
   2772,  0.208656028,  0.466846198
   2773,  0.204785556,  0.458557755
   2774,  0.200915083,  0.450269282
   2775,  0.197044596,  0.441980839
   2776,  0.193174124,  0.433692396
   2777,  0.189303651,  0.425403953
   2778,  0.185433179,   0.41711548
   2779,  0.181562707,  0.408827037
   2780,   0.17769222,  0.400538594
   2781,  0.173821747,   0.39225015
   2782,  0.169951275,  0.383961678
   2783,  0.166080803,  0.375673234
   2784,  0.162210315,  0.367384791
   2785,  0.158339843,  0.359096348
   2786,  0.154469371,  0.350807875
   2787,  0.150598899,  0.342519432
   2788,  0.146728426,  0.334230989
   2789,  0.142857939,  0.325942546
   2790,  0.138987467,  0.317654073
   2791,  0.135116994,   0.30936563
   2792,  0.131246522,  0.301077187
   2793,   0.12737605,  0.292788744
   2794,   0.12350557,  0.284500271
   2795,   0.11963509,  0.276211828
   2796,  0.115764618,  0.267923385
   2797,  0.111894138,  0.259634942
   2798,  0.108023666,  0.251346469
   2799,  0.104153186,  0.243058026
   2800,  0.100282714,  0.234769583
   2801, 0.0964122415,  0.226481125
   2802, 0.0925417617,  0.218192682
   2803, 0.0886712894,  0.209904224
   2804, 0.0848008096,  0.201615781
   2805, 0.0809303373,  0.193327323
   2806, 0.0770598575,   0.18503888
   2807, 0.0731893852,  0.176750422
   2808, 0.0693189129,  0.168461978
   2809, 0.0654484332,   0.16017352
   2810, 0.0615779571,  0.151885077
   2811, 0.0577074848,  0.143596619
   2812, 0.0538370088,  0.135308176
   2813, 0.0499665327,  0.127019718
   2814, 0.0460960567,  0.118731268
   2815, 0.0422255807,  0.110442817
   2816, 0.0383551046,  0.102154367
   2817,   0.23720859,  0.491691798
   2818,  0.233037859,  0.483383566
   2819,  0.228867143,  0.475075364
   2820,  0.224696413,  0.466767162
   2821,  0.220525682,   0.45845896
   2822,  0.216354966,  0.450150728
   2823,  0.212184235,  0.441842526
   2824,   0.20801352,  0.433534324
   2825,  0.203842789,  0.425226092
   2826,  0.199672073,   0.41691789
   2827,  0.195501342,  0.408609688
   2828,  0.191330612,  0.400301456
   2829,  0.187159896,  0.391993254
   2830,  0.182989165,  0.383685052
   2831,  0.178818449,   0.37537685
   2832,  0.174647719,  0.367068619
   2833,  0.170477003,  0.358760417
   2834,  0.166306272,  0.350452214
   2835,  0.162135541,  0.342143983
   2836,  0.157964826,  0.333835781
   2837,  0.153794095,  0.325527579
   2838,  0.149623379,  0.317219377
   2839,  0.145452648,  0.308911145
   2840,  0.141281918,  0.300602943
   2841,  0.137111202,  0.292294741
   2842,  0.132940471,  0.283986509
   2843,  0.128769755,  0.275678307
   2844,  0.124599025,  0.267370105
   2845,  0.120428301,  0.259061873
   2846,  0.116257578,  0.250753671
   2847,  0.112086855,  0.242445469
   2848,  0.107916132,  0.234137252
   2849,  0.103745408,   0.22582905
   2850, 0.0995746776,  0.217520833
   2851, 0.0954039544,  0.209212616
   2852, 0.0912332311,  0.200904414
   2853, 0.0870625079,  0.192596197
   2854, 0.0828917846,  0.184287995
   2855, 0.0787210613,  0.175979778
   2856, 0.0745503381,  0.167671576
   2857, 0.0703796074,  0.159363359
   2858, 0.0662088841,  0.151055142
   2859, 0.0620381609,   0.14274694
   2860, 0.0578674376,  0.134438723
   2861, 0.0536967143,  0.126130521
   2862, 0.0495259874,  0.117822304
   2863, 0.0453552641,  0.109514095
   2864, 0.0411845408,  0.101205885
   2865,  0.254149169,  0.491670638
   2866,  0.249677628,  0.483341277
   2867,  0.245206103,  0.475011915
   2868,  0.240734577,  0.466682553
   2869,  0.236263052,  0.458353192
   2870,  0.231791526,   0.45002383
   2871,  0.227320001,  0.441694468
   2872,  0.222848475,  0.433365107
   2873,  0.218376949,  0.425035745
   2874,  0.213905424,  0.416706383
   2875,  0.209433883,  0.408377022
   2876,  0.204962358,   0.40004766
   2877,  0.200490832,  0.391718298
   2878,  0.196019307,  0.383388937
   2879,  0.191547781,  0.375059575
   2880,  0.187076256,  0.366730213
   2881,   0.18260473,  0.358400851
   2882,  0.178133205,   0.35007149
   2883,  0.173661679,  0.341742128
   2884,  0.169190139,  0.333412766
   2885,  0.164718613,  0.325083405
   2886,  0.160247087,  0.316754043
   2887,  0.155775562,  0.308424681
   2888,  0.151304036,   0.30009532
   2889,  0.146832511,  0.291765958
   2890,  0.142360985,  0.283436596
   2891,   0.13788946,  0.275107235
   2892,  0.133417919,  0.266777873
   2893,  0.128946394,  0.258448511
   2894,  0.124474868,   0.25011915
   2895,  0.120003343,  0.241789803
   2896,  0.115531817,  0.233460441
   2897,  0.111060292,   0.22513108
   2898,  0.106588766,  0.216801718
   2899,  0.102117233,  0.208472356
   2900, 0.0976457074,  0.200142995
   2901, 0.0931741819,  0.191813633
   2902, 0.0887026563,  0.183484271
   2903, 0.0842311233,  0.175154909
   2904, 0.0797595978,  0.166825548
   2905, 0.0752880722,  0.158496186
   2906, 0.0708165467,  0.150166824
   2907, 0.0663450211,  0.141837463
   2908, 0.0618734919,  0.133508101
   2909, 0.0574019626,  0.125178739
   2910,  0.052930437,  0.116849378
   2911, 0.0484589078,  0.108520016
   2912, 0.0439873822,  0.100190654
   2913,  0.271089137,  0.491648108
   2914,  0.266316235,  0.483296216
   2915,  0.261543304,  0.474944353
   2916,  0.256770372,  0.466592461
   2917,  0.251997471,  0.458240569
   2918,   0.24722454,  0.449888676
   2919,  0.242451623,  0.441536784
   2920,  0.237678692,  0.433184892
   2921,  0.232905775,   0.42483303
   2922,  0.228132859,  0.416481137
   2923,  0.223359928,  0.408129245
   2924,  0.218587011,  0.399777353
   2925,  0.213814095,  0.391425461
   2926,  0.209041163,  0.383073598
   2927,  0.204268247,  0.374721706
   2928,   0.19949533,  0.366369814
   2929,  0.194722399,  0.358017921
   2930,  0.189949483,  0.349666029
   2931,  0.185176551,  0.341314137
   2932,  0.180403635,  0.332962275
   2933,  0.175630718,  0.324610382
   2934,  0.170857787,   0.31625849
   2935,  0.166084871,  0.307906598
   2936,  0.161311954,  0.299554706
   2937,  0.156539023,  0.291202813
   2938,  0.151766106,  0.282850951
   2939,   0.14699319,  0.274499059
   2940,  0.142220259,  0.266147166
   2941,  0.137447342,  0.257795274
   2942,  0.132674426,  0.249443397
   2943,  0.127901495,  0.241091505
   2944,  0.123128578,  0.232739612
   2945,  0.118355654,  0.224387735
   2946,  0.113582738,  0.216035843
   2947,  0.108809814,  0.207683966
   2948,   0.10403689,  0.199332073
   2949, 0.0992639661,  0.190980181
   2950, 0.0944910496,  0.182628304
   2951, 0.0897181258,  0.174276412
   2952, 0.0849452019,  0.165924519
   2953, 0.0801722854,  0.157572642
   2954, 0.0753993616,   0.14922075
   2955, 0.0706264377,  0.140868858
   2956, 0.0658535212,   0.13251698
   2957, 0.0610805973,  0.124165088
   2958, 0.0563076735,  0.115813203
   2959, 0.0515347533,  0.107461318
   2960, 0.0467618331, 0.0991094261
   2961,  0.288028508,  0.491624236
   2962,   0.28295356,  0.483248472
   2963,  0.277878612,  0.474872679
   2964,  0.272803664,  0.466496915
   2965,  0.267728716,  0.458121151
   2966,  0.262653768,  0.449745387
   2967,   0.25757885,  0.441369593
   2968,  0.252503902,  0.432993829
   2969,  0.247428954,  0.424618065
   2970,  0.242354006,  0.416242301
   2971,  0.237279058,  0.407866508
   2972,  0.232204109,  0.399490744
   2973,  0.227129176,   0.39111498
   2974,  0.222054228,  0.382739216
   2975,   0.21697928,  0.374363422
   2976,  0.211904332,  0.365987659
   2977,  0.206829399,  0.357611895
   2978,  0.201754451,  0.349236131
   2979,  0.196679503,  0.340860367
   2980,  0.191604555,  0.332484573
   2981,  0.186529621,  0.324108809
   2982,  0.181454673,  0.315733045
   2983,  0.176379725,  0.307357281
   2984,  0.171304777,  0.298981488
   2985,  0.166229844,  0.290605724
   2986,  0.161154896,   0.28222996
   2987,  0.156079948,  0.273854196
   2988,     0.151005,  0.265478402
   2989,  0.145930067,  0.257102638
   2990,  0.140855119,  0.248726875
   2991,  0.135780171,  0.240351096
   2992,  0.130705222,  0.231975332
   2993,  0.125630274,  0.223599553
   2994,  0.120555334,  0.215223789
   2995,  0.115480393,  0.206848025
   2996,  0.110405445,  0.198472247
   2997,  0.105330504,  0.190096483
   2998,  0.100255556,  0.181720704
   2999, 0.0951806158,   0.17334494
   3000, 0.0901056677,  0.164969161
   3001, 0.0850307271,  0.156593397
   3002,  0.079955779,  0.148217618
   3003, 0.0748808384,  0.139841855
   3004, 0.0698058903,  0.131466076
   3005, 0.0647309497,  0.123090312
   3006, 0.0596560054,  0.114714541
   3007,  0.054581061,  0.106338769
   3008, 0.0495061167, 0.0979629979
   3009,  0.304967195,  0.491598994
   3010,  0.299589574,  0.483198017
   3011,  0.294211924,   0.47479701
   3012,  0.288834304,  0.466396004
   3013,  0.283456653,  0.457995027
   3014,  0.278079033,  0.449594021
   3015,  0.272701412,  0.441193014
   3016,  0.267323762,  0.432792038
   3017,  0.261946142,  0.424391031
   3018,  0.256568491,  0.415990055
   3019,  0.251190871,  0.407589048
   3020,  0.245813236,  0.399188042
   3021,    0.2404356,  0.390787065
   3022,   0.23505798,  0.382386059
   3023,  0.229680344,  0.373985052
   3024,  0.224302709,  0.365584075
   3025,  0.218925074,  0.357183069
   3026,  0.213547453,  0.348782063
   3027,  0.208169818,  0.340381086
   3028,  0.202792183,  0.331980079
   3029,  0.197414547,  0.323579073
   3030,  0.192036912,  0.315178096
   3031,  0.186659291,   0.30677709
   3032,  0.181281656,  0.298376113
   3033,  0.175904021,  0.289975107
   3034,  0.170526385,    0.2815741
   3035,   0.16514875,  0.273173124
   3036,  0.159771129,  0.264772117
   3037,  0.154393494,  0.256371111
   3038,  0.149015859,  0.247970119
   3039,  0.143638223,  0.239569128
   3040,  0.138260588,  0.231168136
   3041,  0.132882968,  0.222767144
   3042,  0.127505332,  0.214366138
   3043,  0.122127697,  0.205965146
   3044,  0.116750062,  0.197564155
   3045,  0.111372434,  0.189163148
   3046,  0.105994798,  0.180762157
   3047,   0.10061717,  0.172361165
   3048,  0.095239535,  0.163960174
   3049, 0.0898618996,  0.155559167
   3050, 0.0844842717,  0.147158176
   3051, 0.0791066363,  0.138757184
   3052, 0.0737290084,  0.130356178
   3053, 0.0683513731,  0.121955186
   3054, 0.0629737377,  0.113554195
   3055, 0.0575961098,  0.105153196
   3056, 0.0522184782, 0.0967521966
   3057,  0.321905196,  0.491572469
   3058,  0.316224158,  0.483144909
   3059,   0.31054315,  0.474717379
   3060,  0.304862112,  0.466289818
   3061,  0.299181104,  0.457862288
   3062,  0.293500066,  0.449434727
   3063,  0.287819058,  0.441007197
   3064,   0.28213805,  0.432579666
   3065,  0.276457012,  0.424152106
   3066,  0.270776004,  0.415724576
   3067,  0.265094966,  0.407297015
   3068,  0.259413958,  0.398869485
   3069,   0.25373292,  0.390441924
   3070,  0.248051912,  0.382014394
   3071,  0.242370889,  0.373586863
   3072,  0.236689866,  0.365159303
   3073,  0.231008843,  0.356731772
   3074,   0.22532782,  0.348304212
   3075,  0.219646797,  0.339876682
   3076,  0.213965774,  0.331449151
   3077,  0.208284765,  0.323021591
   3078,  0.202603742,   0.31459406
   3079,  0.196922719,    0.3061665
   3080,  0.191241696,  0.297738969
   3081,  0.185560673,  0.289311409
   3082,   0.17987965,  0.280883878
   3083,  0.174198627,  0.272456348
   3084,  0.168517604,  0.264028788
   3085,  0.162836596,  0.255601257
   3086,  0.157155573,  0.247173712
   3087,   0.15147455,  0.238746166
   3088,  0.145793527,  0.230318621
   3089,  0.140112504,  0.221891075
   3090,  0.134431481,   0.21346353
   3091,  0.128750458,  0.205035985
   3092,  0.123069443,  0.196608439
   3093,   0.11738842,  0.188180909
   3094,  0.111707397,  0.179753363
   3095,  0.106026374,  0.171325818
   3096,  0.100345358,  0.162898272
   3097, 0.0946643353,  0.154470727
   3098, 0.0889833122,  0.146043181
   3099, 0.0833022892,  0.137615636
   3100, 0.0776212662,  0.129188105
   3101, 0.0719402507,   0.12076056
   3102, 0.0662592277,  0.112333015
   3103, 0.0605782047,  0.103905469
   3104, 0.0548971854, 0.0954779238
   3105,  0.338842452,  0.491544604
   3106,  0.332857281,  0.483089209
   3107,   0.32687214,  0.474633813
   3108,  0.320886999,  0.466178417
   3109,  0.314901859,  0.457723022
   3110,  0.308916718,  0.449267626
   3111,  0.302931547,   0.44081226
   3112,  0.296946406,  0.432356864
   3113,  0.290961266,  0.423901469
   3114,  0.284976125,  0.415446073
   3115,  0.278990984,  0.406990677
   3116,  0.273005813,  0.398535281
   3117,  0.267020673,  0.390079886
   3118,  0.261035532,   0.38162449
   3119,  0.255050391,  0.373169094
   3120,  0.249065235,  0.364713699
   3121,  0.243080094,  0.356258303
   3122,  0.237094939,  0.347802907
   3123,  0.231109798,  0.339347512
   3124,  0.225124642,  0.330892116
   3125,  0.219139501,   0.32243675
   3126,  0.213154361,  0.313981354
   3127,  0.207169205,  0.305525959
   3128,  0.201184064,  0.297070563
   3129,  0.195198908,  0.288615167
   3130,  0.189213768,  0.280159771
   3131,  0.183228612,  0.271704376
   3132,  0.177243471,   0.26324898
   3133,   0.17125833,  0.254793584
   3134,  0.165273175,  0.246338189
   3135,  0.159288034,  0.237882808
   3136,  0.153302878,  0.229427412
   3137,  0.147317737,  0.220972016
   3138,  0.141332597,  0.212516621
   3139,  0.135347441,  0.204061225
   3140,    0.1293623,  0.195605829
   3141,  0.123377152,  0.187150434
   3142,  0.117392004,  0.178695053
   3143,  0.111406855,  0.170239657
   3144,  0.105421707,  0.161784261
   3145, 0.0994365588,  0.153328866
   3146,  0.093451418,   0.14487347
   3147, 0.0874662697,  0.136418074
   3148, 0.0814811215,  0.127962679
   3149, 0.0754959732,   0.11950729
   3150,  0.069510825,  0.111051895
   3151, 0.0635256767,  0.102596506
   3152, 0.0575405322, 0.0941411108
   3153,  0.355778933,  0.491515487
   3154,  0.349488884,  0.483030945
   3155,  0.343198836,  0.474546432
   3156,  0.336908787,   0.46606189
   3157,  0.330618739,  0.457577378
   3158,  0.324328691,  0.449092835
   3159,  0.318038642,  0.440608323
   3160,  0.311748624,   0.43212378
   3161,  0.305458575,  0.423639268
   3162,  0.299168527,  0.415154725
   3163,  0.292878479,  0.406670213
   3164,   0.28658843,   0.39818567
   3165,  0.280298382,  0.389701158
   3166,  0.274008334,  0.381216645
   3167,  0.267718315,  0.372732103
   3168,  0.261428267,   0.36424759
   3169,  0.255138218,  0.355763048
   3170,   0.24884817,  0.347278535
   3171,  0.242558122,  0.338793993
   3172,  0.236268073,   0.33030948
   3173,   0.22997804,  0.321824938
   3174,  0.223687991,  0.313340425
   3175,  0.217397943,  0.304855883
   3176,   0.21110791,  0.296371371
   3177,  0.204817861,  0.287886828
   3178,  0.198527813,  0.279402316
   3179,  0.192237765,  0.270917773
   3180,  0.185947731,  0.262433261
   3181,  0.179657683,  0.253948748
   3182,  0.173367634,  0.245464206
   3183,  0.167077586,  0.236979678
   3184,  0.160787553,  0.228495151
   3185,  0.154497504,  0.220010623
   3186,  0.148207456,  0.211526096
   3187,  0.141917422,  0.203041583
   3188,  0.135627374,  0.194557056
   3189,  0.129337326,  0.186072528
   3190,  0.123047285,  0.177588001
   3191,  0.116757236,  0.169103473
   3192,  0.110467196,  0.160618946
   3193,  0.104177147,  0.152134418
   3194, 0.0978871062,  0.143649891
   3195, 0.0915970653,  0.135165364
   3196,  0.085307017,  0.126680836
   3197, 0.0790169761,  0.118196316
   3198, 0.0727269277,  0.109711789
   3199, 0.0664368868,  0.101227261
   3200, 0.0601468422, 0.0927427337
   3201,  0.372714609,  0.491485089
   3202,  0.366118848,  0.482970148
   3203,  0.359523088,  0.474455237
   3204,  0.352927357,  0.465940326
   3205,  0.346331596,  0.457425386
   3206,  0.339735866,  0.448910475
   3207,  0.333140105,  0.440395564
   3208,  0.326544374,  0.431880623
   3209,  0.319948614,  0.423365712
   3210,  0.313352853,  0.414850801
   3211,  0.306757122,   0.40633589
   3212,  0.300161362,   0.39782095
   3213,  0.293565631,  0.389306039
   3214,   0.28696987,  0.380791128
   3215,   0.28037414,  0.372276187
   3216,  0.273778379,  0.363761276
   3217,  0.267182648,  0.355246365
   3218,  0.260586888,  0.346731424
   3219,  0.253991127,  0.338216513
   3220,  0.247395396,  0.329701602
   3221,  0.240799636,  0.321186662
   3222,   0.23420389,  0.312671751
   3223,  0.227608144,   0.30415684
   3224,  0.221012399,  0.295641899
   3225,  0.214416653,  0.287126988
   3226,  0.207820907,  0.278612077
   3227,  0.201225162,  0.270097136
   3228,  0.194629416,  0.261582226
   3229,  0.188033655,  0.253067315
   3230,   0.18143791,  0.244552389
   3231,  0.174842164,  0.236037463
   3232,  0.168246418,  0.227522552
   3233,  0.161650673,  0.219007626
   3234,  0.155054927,    0.2104927
   3235,  0.148459181,  0.201977789
   3236,  0.141863421,  0.193462864
   3237,  0.135267675,  0.184947938
   3238,  0.128671929,  0.176433027
   3239,  0.122076184,  0.167918101
   3240,  0.115480438,   0.15940319
   3241,  0.108884685,  0.150888264
   3242,  0.102288939,  0.142373338
   3243, 0.0956931934,  0.133858427
   3244, 0.0890974477,  0.125343502
   3245, 0.0825016946,  0.116828583
   3246, 0.0759059489,  0.108313657
   3247, 0.0693102032,  0.099798739
   3248, 0.0627144575, 0.0912838206
   3249,  0.389649421,  0.491453439
   3250,  0.382747144,  0.482906908
   3251,  0.375844836,  0.474360347
   3252,  0.368942559,  0.465813786
   3253,  0.362040281,  0.457267225
   3254,  0.355137974,  0.448720694
   3255,  0.348235697,  0.440174133
   3256,  0.341333389,  0.431627572
   3257,  0.334431112,  0.423081011
   3258,  0.327528805,  0.414534479
   3259,  0.320626527,  0.405987918
   3260,   0.31372422,  0.397441357
   3261,  0.306821942,  0.388894796
   3262,  0.299919635,  0.380348265
   3263,  0.293017358,  0.371801704
   3264,   0.28611508,  0.363255143
   3265,  0.279212773,  0.354708582
   3266,  0.272310495,  0.346162051
   3267,  0.265408188,   0.33761549
   3268,  0.258505911,  0.329068929
   3269,  0.251603603,  0.320522368
   3270,  0.244701326,  0.311975837
   3271,  0.237799034,  0.303429276
   3272,  0.230896741,  0.294882715
   3273,  0.223994449,  0.286336154
   3274,  0.217092156,  0.277789623
   3275,  0.210189864,  0.269243062
   3276,  0.203287572,  0.260696501
   3277,  0.196385279,   0.25214994
   3278,  0.189482987,  0.243603393
   3279,  0.182580695,  0.235056847
   3280,  0.175678402,  0.226510286
   3281,   0.16877611,   0.21796374
   3282,  0.161873832,  0.209417194
   3283,   0.15497154,  0.200870633
   3284,  0.148069248,  0.192324087
   3285,  0.141166955,  0.183777526
   3286,  0.134264663,   0.17523098
   3287,   0.12736237,  0.166684419
   3288,  0.120460078,  0.158137873
   3289,  0.113557786,  0.149591312
   3290,  0.106655493,  0.141044766
   3291, 0.0997532085,  0.132498205
   3292, 0.0928509161,  0.123951651
   3293, 0.0859486237,  0.115405098
   3294, 0.0790463313,  0.106858544
   3295,  0.072144039, 0.0983119905
   3296, 0.0652417466, 0.0897654369
   3297,  0.406583399,  0.491420597
   3298,   0.39937368,  0.482841194
   3299,  0.392163992,  0.474261791
   3300,  0.384954274,  0.465682387
   3301,  0.377744555,  0.457102984
   3302,  0.370534867,  0.448523581
   3303,  0.363325149,  0.439944178
   3304,  0.356115431,  0.431364775
   3305,  0.348905742,  0.422785372
   3306,  0.341696024,  0.414205968
   3307,  0.334486306,  0.405626565
   3308,  0.327276617,  0.397047192
   3309,  0.320066899,  0.388467789
   3310,  0.312857181,  0.379888386
   3311,  0.305647492,  0.371308982
   3312,  0.298437774,  0.362729579
   3313,  0.291228086,  0.354150176
   3314,  0.284018368,  0.345570773
   3315,  0.276808649,   0.33699137
   3316,  0.269598961,  0.328411967
   3317,  0.262389243,  0.319832563
   3318,  0.255179524,   0.31125316
   3319,  0.247969821,  0.302673757
   3320,  0.240760118,  0.294094354
   3321,  0.233550414,  0.285514951
   3322,  0.226340696,  0.276935548
   3323,  0.219130993,  0.268356144
   3324,   0.21192129,  0.259776741
   3325,  0.204711571,  0.251197338
   3326,  0.197501868,   0.24261795
   3327,  0.190292165,  0.234038547
   3328,  0.183082461,  0.225459144
   3329,  0.175872743,   0.21687974
   3330,   0.16866304,  0.208300337
   3331,  0.161453336,  0.199720934
   3332,  0.154243618,  0.191141531
   3333,  0.147033915,  0.182562128
   3334,  0.139824212,  0.173982725
   3335,  0.132614493,  0.165403321
   3336,   0.12540479,  0.156823918
   3337,  0.118195087,  0.148244515
   3338,  0.110985376,  0.139665127
   3339,  0.103775665,  0.131085724
   3340, 0.0965659618,  0.122506313
   3341, 0.0893562511,  0.113926917
   3342, 0.0821465477,  0.105347514
   3343,  0.074936837,  0.096768111
   3344, 0.0677271262, 0.0881887078
   3345,  0.423516452,  0.491386563
   3346,  0.415998429,  0.482773125
   3347,  0.408480406,  0.474159688
   3348,  0.400962353,  0.465546221
   3349,   0.39344433,  0.456932783
   3350,  0.385926306,  0.448319346
   3351,  0.378408283,  0.439705908
   3352,   0.37089023,  0.431092471
   3353,  0.363372207,  0.422479033
   3354,  0.355854183,  0.413865566
   3355,   0.34833616,  0.405252129
   3356,  0.340818107,  0.396638691
   3357,  0.333300084,  0.388025254
   3358,  0.325782061,  0.379411817
   3359,  0.318264037,  0.370798379
   3360,  0.310745984,  0.362184912
   3361,  0.303227961,  0.353571475
   3362,  0.295709938,  0.344958037
   3363,  0.288191915,    0.3363446
   3364,  0.280673891,  0.327731162
   3365,  0.273155838,  0.319117725
   3366,  0.265637815,  0.310504287
   3367,  0.258119792,   0.30189082
   3368,  0.250601768,  0.293277383
   3369,   0.24308373,  0.284663945
   3370,  0.235565692,  0.276050508
   3371,  0.228047669,  0.267437071
   3372,  0.220529631,  0.258823633
   3373,  0.213011608,  0.250210166
   3374,  0.205493569,  0.241596743
   3375,  0.197975546,  0.232983291
   3376,  0.190457508,  0.224369854
   3377,  0.182939485,  0.215756416
   3378,  0.175421447,  0.207142964
   3379,  0.167903423,  0.198529527
   3380,    0.1603854,  0.189916089
   3381,  0.152867362,  0.181302637
   3382,  0.145349339,  0.172689199
   3383,    0.1378313,  0.164075762
   3384,  0.130313277,   0.15546231
   3385,  0.122795239,  0.146848872
   3386,  0.115277208,  0.138235435
   3387,  0.107759185,  0.129621997
   3388,  0.100241154,  0.121008545
   3389, 0.0927231237,  0.112395108
   3390,  0.085205093,  0.103781663
   3391, 0.0776870623, 0.0951682255
   3392, 0.0701690316, 0.0865547806
   3393,  0.440448582,  0.491351336
   3394,   0.43262127,  0.482702702
   3395,  0.424793988,  0.474054039
   3396,  0.416966707,  0.465405405
   3397,  0.409139425,  0.456756741
   3398,  0.401312113,  0.448108107
   3399,  0.393484831,  0.439459443
   3400,  0.385657549,  0.430810809
   3401,  0.377830237,  0.422162145
   3402,  0.370002955,  0.413513511
   3403,  0.362175673,  0.404864848
   3404,  0.354348361,  0.396216214
   3405,   0.34652108,   0.38756755
   3406,  0.338693798,  0.378918916
   3407,  0.330866516,  0.370270252
   3408,  0.323039204,  0.361621618
   3409,  0.315211922,  0.352972955
   3410,   0.30738464,  0.344324321
   3411,  0.299557328,  0.335675657
   3412,  0.291730046,  0.327027023
   3413,  0.283902764,  0.318378359
   3414,  0.276075482,  0.309729725
   3415,  0.268248171,  0.301081061
   3416,  0.260420889,  0.292432427
   3417,  0.252593607,  0.283783764
   3418,   0.24476631,   0.27513513
   3419,  0.236939013,  0.266486466
   3420,  0.229111731,  0.257837832
   3421,  0.221284434,  0.249189183
   3422,  0.213457152,  0.240540534
   3423,  0.205629855,  0.231891885
   3424,  0.197802573,  0.223243237
   3425,  0.189975277,  0.214594588
   3426,   0.18214798,  0.205945939
   3427,  0.174320698,   0.19729729
   3428,  0.166493401,  0.188648641
   3429,  0.158666119,  0.179999992
   3430,  0.150838822,  0.171351343
   3431,   0.14301154,  0.162702695
   3432,  0.135184243,  0.154054046
   3433,  0.127356946,  0.145405397
   3434,  0.119529665,  0.136756748
   3435,  0.111702368,  0.128108099
   3436,  0.103875078,   0.11945945
   3437, 0.0960477889,  0.110810801
   3438, 0.0882204995,  0.102162153
   3439, 0.0803932101, 0.0935135037
   3440, 0.0725659207, 0.0848648548
   3441,  0.457379729,  0.491315007
   3442,  0.449242204,  0.482630014
   3443,   0.44110468,  0.473945022
   3444,  0.432967156,  0.465260029
   3445,  0.424829632,  0.456575006
   3446,  0.416692138,  0.447890013
   3447,  0.408554614,  0.439205021
   3448,  0.400417089,  0.430520028
   3449,  0.392279565,  0.421835035
   3450,  0.384142041,  0.413150042
   3451,  0.376004517,   0.40446505
   3452,  0.367866993,  0.395780057
   3453,  0.359729499,  0.387095034
   3454,  0.351591974,  0.378410041
   3455,   0.34345445,  0.369725049
   3456,  0.335316926,  0.361040056
   3457,  0.327179402,  0.352355063
   3458,  0.319041878,   0.34367007
   3459,  0.310904354,  0.334985077
   3460,   0.30276686,  0.326300085
   3461,  0.294629335,  0.317615062
   3462,  0.286491811,  0.308930069
   3463,  0.278354287,  0.300245076
   3464,  0.270216763,  0.291560084
   3465,  0.262079239,  0.282875091
   3466,  0.253941715,  0.274190098
   3467,  0.245804206,  0.265505105
   3468,  0.237666696,  0.256820112
   3469,  0.229529172,  0.248135105
   3470,  0.221391648,  0.239450112
   3471,  0.213254124,  0.230765104
   3472,  0.205116615,  0.222080112
   3473,  0.196979091,  0.213395119
   3474,  0.188841566,  0.204710126
   3475,  0.180704057,  0.196025118
   3476,  0.172566533,  0.187340125
   3477,  0.164429009,  0.178655133
   3478,    0.1562915,   0.16997014
   3479,  0.148153976,  0.161285132
   3480,  0.140016451,  0.152600139
   3481,  0.131878927,  0.143915147
   3482,  0.123741411,  0.135230154
   3483,  0.115603894,  0.126545146
   3484,  0.107466377,  0.117860153
   3485, 0.0993288532,  0.109175161
   3486, 0.0911913365,   0.10049016
   3487, 0.0830538124, 0.0918051675
   3488, 0.0749162957, 0.0831201673
   3489,  0.474309862,  0.491277546
   3490,  0.465861112,  0.482555091
   3491,  0.457412362,  0.473832637
   3492,  0.448963612,  0.465110153
   3493,  0.440514892,  0.456387699
   3494,  0.432066143,  0.447665244
   3495,  0.423617393,   0.43894279
   3496,  0.415168643,  0.430220336
   3497,  0.406719893,  0.421497881
   3498,  0.398271143,  0.412775427
   3499,  0.389822394,  0.404052973
   3500,  0.381373644,  0.395330489
   3501,  0.372924894,  0.386608034
   3502,  0.364476144,   0.37788558
   3503,  0.356027395,  0.369163126
   3504,  0.347578645,  0.360440671
   3505,  0.339129895,  0.351718217
   3506,  0.330681145,  0.342995763
   3507,  0.322232395,  0.334273309
   3508,  0.313783646,  0.325550824
   3509,  0.305334896,   0.31682837
   3510,  0.296886146,  0.308105916
   3511,  0.288437396,  0.299383461
   3512,  0.279988647,  0.290661007
   3513,  0.271539897,  0.281938553
   3514,  0.263091147,  0.273216099
   3515,  0.254642427,  0.264493614
   3516,  0.246193662,   0.25577116
   3517,  0.237744913,  0.247048706
   3518,  0.229296163,  0.238326252
   3519,  0.220847413,  0.229603797
   3520,  0.212398663,  0.220881343
   3521,  0.203949928,  0.212158874
   3522,  0.195501179,  0.203436419
   3523,  0.187052429,  0.194713965
   3524,  0.178603679,  0.185991511
   3525,  0.170154929,  0.177269042
   3526,  0.161706179,  0.168546587
   3527,   0.15325743,  0.159824133
   3528,   0.14480868,  0.151101679
   3529,   0.13635993,  0.142379209
   3530,   0.12791118,  0.133656755
   3531,  0.119462438,  0.124934301
   3532,  0.111013688,  0.116211839
   3533,  0.102564938,  0.107489385
   3534, 0.0941161886,  0.098766923
   3535, 0.0856674463, 0.0900444686
   3536, 0.0772186965, 0.0813220069
   3537, -0.491835982, 0.0169447791
   3538, -0.483671963, 0.0166481771
   3539, -0.475507945, 0.0163515769
   3540, -0.467343956, 0.0160549767
   3541, -0.459179938, 0.0157583747
   3542, -0.451015919, 0.0154617745
   3543, -0.442851901, 0.0151651734
   3544, -0.434687883, 0.0148685724
   3545, -0.426523864, 0.0145719722
   3546, -0.418359876, 0.0142753711
   3547, -0.410195857,   0.01397877
   3548, -0.402031839, 0.0136821689
   3549, -0.393867821, 0.0133855687
   3550, -0.385703802, 0.0130889677
   3551, -0.377539784, 0.0127923666
   3552, -0.369375795, 0.0124957664
   3553, -0.361211777, 0.0121991653
   3554, -0.353047758, 0.0119025642
   3555,  -0.34488374, 0.0116059631
   3556, -0.336719722, 0.0113093629
   3557, -0.328555703, 0.0110127619
   3558, -0.320391685, 0.0107161608
   3559, -0.312227696, 0.0104195606
   3560, -0.304063678, 0.0101229595
   3561, -0.295899659, 0.00982635841
   3562, -0.287735641, 0.00952975731
   3563, -0.279571623, 0.00923315715
   3564, -0.271407604, 0.00893655606
   3565, -0.263243616, 0.00863995496
   3566, -0.255079597, 0.00834335387
   3567, -0.246915579, 0.0080467537
   3568,  -0.23875156, 0.00775015261
   3569, -0.230587542, 0.00745355198
   3570, -0.222423539, 0.00715695089
   3571,  -0.21425952, 0.00686035026
   3572, -0.206095502, 0.00656374916
   3573, -0.197931498, 0.00626714854
   3574,  -0.18976748, 0.00597054744
   3575, -0.181603462, 0.00567394681
   3576, -0.173439458, 0.00537734618
   3577,  -0.16527544, 0.00508074509
   3578, -0.157111421, 0.00478414446
   3579, -0.148947418, 0.00448754337
   3580, -0.140783399, 0.00419094274
   3581, -0.132619381, 0.00389434188
   3582,  -0.12445537, 0.00359774102
   3583, -0.116291359, 0.00330114015
   3584, -0.108127341, 0.00300453929
   3585, -0.491833746, 0.0338895172
   3586, -0.483667493, 0.0332962759
   3587, -0.475501239, 0.0327030309
   3588, -0.467334956, 0.0321097896
   3589, -0.459168702, 0.0315165482
   3590, -0.451002449, 0.0309233051
   3591, -0.442836195, 0.0303300638
   3592, -0.434669942, 0.0297368206
   3593, -0.426503688, 0.0291435793
   3594, -0.418337405, 0.0285503361
   3595, -0.410171151, 0.0279570948
   3596, -0.402004898, 0.0273638517
   3597, -0.393838644, 0.0267706104
   3598,  -0.38567239, 0.0261773672
   3599, -0.377506137, 0.0255841259
   3600, -0.369339854, 0.0249908827
   3601,   -0.3611736, 0.0243976414
   3602, -0.353007346, 0.0238043983
   3603, -0.344841093, 0.0232111569
   3604, -0.336674839, 0.0226179138
   3605, -0.328508586, 0.0220246725
   3606, -0.320342302, 0.0214314293
   3607, -0.312176049,  0.020838188
   3608, -0.304009795, 0.0202449467
   3609, -0.295843542, 0.0196517035
   3610, -0.287677288, 0.0190584622
   3611, -0.279511034, 0.0184652191
   3612, -0.271344781, 0.0178719778
   3613, -0.263178498, 0.0172787346
   3614, -0.255012244, 0.0166854933
   3615,  -0.24684599, 0.0160922501
   3616, -0.238679737, 0.0154990079
   3617, -0.230513468, 0.0149057657
   3618, -0.222347215, 0.0143125234
   3619, -0.214180961, 0.0137192821
   3620, -0.206014693, 0.0131260399
   3621, -0.197848439, 0.0125327976
   3622, -0.189682186, 0.0119395554
   3623, -0.181515932, 0.0113463132
   3624, -0.173349664, 0.0107530709
   3625,  -0.16518341, 0.0101598287
   3626, -0.157017156, 0.00956658646
   3627, -0.148850888, 0.00897334423
   3628, -0.140684634, 0.00838010199
   3629, -0.132518381, 0.00778685976
   3630,  -0.12435212, 0.00719361752
   3631, -0.116185859, 0.00660037529
   3632, -0.108019598, 0.00600713305
   3633, -0.491829991, 0.0508341715
   3634, -0.483660012, 0.0499442071
   3635, -0.475490004, 0.0490542427
   3636, -0.467319995, 0.0481642783
   3637, -0.459150016, 0.0472743139
   3638, -0.450980008, 0.0463843495
   3639, -0.442810029, 0.0454943851
   3640,  -0.43464002, 0.0446044207
   3641, -0.426470011, 0.0437144563
   3642, -0.418300033, 0.0428244919
   3643, -0.410130024, 0.0419345275
   3644, -0.401960015, 0.0410445631
   3645, -0.393790036, 0.0401545987
   3646, -0.385620028, 0.0392646343
   3647, -0.377450049, 0.0383746698
   3648,  -0.36928004, 0.0374847054
   3649, -0.361110032,  0.036594741
   3650, -0.352940053, 0.0357047766
   3651, -0.344770044, 0.0348148122
   3652, -0.336600035, 0.0339248441
   3653, -0.328430057, 0.0330348797
   3654, -0.320260048, 0.0321449153
   3655, -0.312090069, 0.0312549509
   3656,  -0.30392006, 0.0303649884
   3657, -0.295750052, 0.0294750221
   3658, -0.287580073, 0.0285850577
   3659, -0.279410064, 0.0276950933
   3660, -0.271240056, 0.0268051289
   3661, -0.263070077, 0.0259151645
   3662, -0.254900068, 0.0250252001
   3663, -0.246730074, 0.0241352357
   3664, -0.238560081, 0.0232452713
   3665, -0.230390087, 0.0223553069
   3666, -0.222220078, 0.0214653406
   3667, -0.214050084, 0.0205753762
   3668, -0.205880091, 0.0196854118
   3669, -0.197710097, 0.0187954474
   3670, -0.189540088,  0.017905483
   3671, -0.181370094, 0.0170155186
   3672, -0.173200101, 0.0161255542
   3673, -0.165030107, 0.0152355889
   3674, -0.156860098, 0.0143456245
   3675, -0.148690104, 0.0134556601
   3676, -0.140520111, 0.0125656957
   3677, -0.132350102, 0.0116757313
   3678, -0.124180108, 0.0107857659
   3679, -0.116010115, 0.00989580154
   3680, -0.107840113, 0.00900583714
   3681, -0.491824776, 0.0677787066
   3682, -0.483649552, 0.0665919036
   3683, -0.475474328, 0.0654050931
   3684, -0.467299074, 0.0642182827
   3685,  -0.45912385, 0.0630314723
   3686, -0.450948626, 0.0618446656
   3687, -0.442773402, 0.0606578588
   3688, -0.434598178, 0.0594710484
   3689, -0.426422954, 0.0582842417
   3690,   -0.4182477, 0.0570974313
   3691, -0.410072476, 0.0559106246
   3692, -0.401897252, 0.0547238141
   3693, -0.393722028, 0.0535370074
   3694, -0.385546803,  0.052350197
   3695, -0.377371579, 0.0511633903
   3696, -0.369196355, 0.0499765798
   3697, -0.361021101, 0.0487897731
   3698, -0.352845877, 0.0476029664
   3699, -0.344670653,  0.046416156
   3700, -0.336495429, 0.0452293493
   3701, -0.328320205, 0.0440425389
   3702, -0.320144981, 0.0428557321
   3703, -0.311969727, 0.0416689217
   3704, -0.303794503,  0.040482115
   3705, -0.295619279, 0.0392953046
   3706, -0.287444055, 0.0381084979
   3707, -0.279268831, 0.0369216874
   3708, -0.271093607, 0.0357348807
   3709, -0.262918383, 0.0345480703
   3710, -0.254743129, 0.0333612636
   3711, -0.246567905, 0.0321744531
   3712, -0.238392681, 0.0309876464
   3713, -0.230217457, 0.0298008379
   3714, -0.222042233, 0.0286140293
   3715, -0.213866994, 0.0274272207
   3716,  -0.20569177, 0.0262404121
   3717, -0.197516546, 0.0250536036
   3718, -0.189341307,  0.023866795
   3719, -0.181166083, 0.0226799864
   3720, -0.172990859, 0.0214931779
   3721,  -0.16481562, 0.0203063693
   3722, -0.156640396, 0.0191195607
   3723, -0.148465171, 0.0179327521
   3724, -0.140289932, 0.0167459436
   3725, -0.132114708, 0.0155591359
   3726, -0.123939484, 0.0143723274
   3727, -0.115764253, 0.0131855188
   3728, -0.107589021, 0.0119987102
   3729, -0.491818041, 0.0847230852
   3730, -0.483636111, 0.0832392648
   3731, -0.475454152, 0.0817554519
   3732, -0.467272222, 0.0802716389
   3733, -0.459090263,  0.078787826
   3734, -0.450908303, 0.0773040131
   3735, -0.442726374, 0.0758202001
   3736, -0.434544414, 0.0743363798
   3737, -0.426362485, 0.0728525668
   3738, -0.418180525, 0.0713687539
   3739, -0.409998566,  0.069884941
   3740, -0.401816636, 0.0684011281
   3741, -0.393634677, 0.0669173151
   3742, -0.385452718, 0.0654334947
   3743, -0.377270788, 0.0639496818
   3744, -0.369088829, 0.0624658689
   3745, -0.360906899,  0.060982056
   3746,  -0.35272494,  0.059498243
   3747,  -0.34454298, 0.0580144264
   3748, -0.336361051, 0.0565306135
   3749, -0.328179091, 0.0550467968
   3750, -0.319997162, 0.0535629839
   3751, -0.311815202, 0.0520791709
   3752, -0.303633243, 0.0505953543
   3753, -0.295451313, 0.0491115414
   3754, -0.287269354, 0.0476277284
   3755, -0.279087424, 0.0461439118
   3756, -0.270905465, 0.0446600989
   3757, -0.262723505, 0.0431762859
   3758, -0.254541576, 0.0416924693
   3759, -0.246359617, 0.0402086563
   3760, -0.238177672, 0.0387248434
   3761, -0.229995728, 0.0372410268
   3762, -0.221813783, 0.0357572138
   3763, -0.213631824, 0.0342734009
   3764, -0.205449879, 0.0327895842
   3765, -0.197267935, 0.0313057713
   3766,  -0.18908599, 0.0298219565
   3767, -0.180904031, 0.0283381436
   3768, -0.172722086, 0.0268543288
   3769, -0.164540142,  0.025370514
   3770, -0.156358197, 0.0238867011
   3771, -0.148176253, 0.0224028863
   3772, -0.139994293, 0.0209190715
   3773, -0.131812349, 0.0194352586
   3774, -0.123630404, 0.0179514438
   3775, -0.115448453,  0.016467629
   3776, -0.107266508, 0.0149838151
   3777, -0.491809845,  0.101667255
   3778,  -0.48361969, 0.0998862311
   3779, -0.475429565, 0.0981052071
   3780,  -0.46723941, 0.0963241905
   3781, -0.459049255, 0.0945431665
   3782,   -0.4508591, 0.0927621424
   3783, -0.442668945, 0.0909811258
   3784,  -0.43447879, 0.0892001018
   3785, -0.426288664, 0.0874190778
   3786, -0.418098509, 0.0856380537
   3787, -0.409908354, 0.0838570371
   3788, -0.401718199, 0.0820760131
   3789, -0.393528044,  0.080294989
   3790, -0.385337889,  0.078513965
   3791, -0.377147764, 0.0767329484
   3792, -0.368957609, 0.0749519244
   3793, -0.360767454, 0.0731709003
   3794, -0.352577299, 0.0713898838
   3795, -0.344387144, 0.0696088597
   3796, -0.336196989, 0.0678278357
   3797, -0.328006864, 0.0660468116
   3798, -0.319816709, 0.0642657951
   3799, -0.311626554,  0.062484771
   3800, -0.303436399,  0.060703747
   3801, -0.295246243, 0.0589227267
   3802, -0.287056088, 0.0571417063
   3803, -0.278865963, 0.0553606823
   3804, -0.270675808,  0.053579662
   3805, -0.262485653,  0.051798638
   3806, -0.254295498, 0.0500176176
   3807, -0.246105358, 0.0482365936
   3808, -0.237915203, 0.0464555733
   3809, -0.229725048, 0.0446745493
   3810, -0.221534908, 0.0428935289
   3811, -0.213344753, 0.0411125086
   3812, -0.205154598, 0.0393314846
   3813, -0.196964458, 0.0375504643
   3814, -0.188774303, 0.0357694402
   3815, -0.180584148, 0.0339884199
   3816, -0.172394007, 0.0322073959
   3817, -0.164203852, 0.0304263756
   3818, -0.156013697, 0.0286453534
   3819, -0.147823557, 0.0268643312
   3820, -0.139633402,  0.025083309
   3821, -0.131443247, 0.0233022869
   3822,   -0.1232531, 0.0215212647
   3823, -0.115062952, 0.0197402444
   3824, -0.106872804, 0.0179592222
   3825, -0.491800159,  0.118611187
   3826, -0.483600348,  0.116532713
   3827, -0.475400507,   0.11445424
   3828, -0.467200696,  0.112375766
   3829, -0.459000856,  0.110297292
   3830, -0.450801015,  0.108218826
   3831, -0.442601204,  0.106140353
   3832, -0.434401363,  0.104061879
   3833, -0.426201522,  0.101983406
   3834, -0.418001711, 0.0999049395
   3835, -0.409801871,  0.097826466
   3836,  -0.40160206, 0.0957479924
   3837, -0.393402219, 0.0936695188
   3838, -0.385202378, 0.0915910453
   3839, -0.377002567, 0.0895125791
   3840, -0.368802726, 0.0874341056
   3841, -0.360602915,  0.085355632
   3842, -0.352403075, 0.0832771584
   3843, -0.344203234, 0.0811986923
   3844, -0.336003423, 0.0791202188
   3845, -0.327803582, 0.0770417452
   3846, -0.319603771, 0.0749632716
   3847,  -0.31140393,  0.072884798
   3848, -0.303204089, 0.0708063319
   3849, -0.295004278, 0.0687278584
   3850, -0.286804438, 0.0666493848
   3851, -0.278604597, 0.0645709112
   3852, -0.270404786, 0.0624924414
   3853, -0.262204945, 0.0604139715
   3854, -0.254005134,  0.058335498
   3855, -0.245805293, 0.0562570281
   3856, -0.237605467, 0.0541785546
   3857, -0.229405642,  0.052100081
   3858, -0.221205801, 0.0500216112
   3859, -0.213005975, 0.0479431376
   3860, -0.204806149, 0.0458646677
   3861, -0.196606323, 0.0437861942
   3862, -0.188406482, 0.0417077243
   3863, -0.180206656, 0.0396292508
   3864, -0.172006831, 0.0375507809
   3865, -0.163807005, 0.0354723074
   3866, -0.155607179, 0.0333938338
   3867, -0.147407338, 0.0313153639
   3868, -0.139207512, 0.0292368922
   3869, -0.131007686, 0.0271584205
   3870, -0.122807853, 0.0250799488
   3871, -0.114608027, 0.0230014753
   3872, -0.106408201, 0.0209230036
   3873, -0.491789013,  0.135554835
   3874, -0.483578056,  0.133178622
   3875, -0.475367069,  0.130802423
   3876, -0.467156082,  0.128426224
   3877, -0.458945096,   0.12605001
   3878, -0.450734138,  0.123673812
   3879, -0.442523152,  0.121297605
   3880, -0.434312165,  0.118921407
   3881, -0.426101208,    0.1165452
   3882, -0.417890221,  0.114168994
   3883, -0.409679234,  0.111792795
   3884, -0.401468247,  0.109416589
   3885,  -0.39325729,  0.107040383
   3886, -0.385046303,  0.104664177
   3887, -0.376835316,  0.102287978
   3888, -0.368624359, 0.0999117717
   3889, -0.360413373, 0.0975355655
   3890, -0.352202386, 0.0951593667
   3891, -0.343991399, 0.0927831605
   3892, -0.335780442, 0.0904069543
   3893, -0.327569455, 0.0880307555
   3894, -0.319358468, 0.0856545493
   3895, -0.311147481, 0.0832783431
   3896, -0.302936524, 0.0809021443
   3897, -0.294725537, 0.0785259381
   3898,  -0.28651455, 0.0761497319
   3899, -0.278303593, 0.0737735331
   3900, -0.270092607, 0.0713973269
   3901,  -0.26188162, 0.0690211207
   3902, -0.253670633, 0.0666449144
   3903, -0.245459661, 0.0642687157
   3904, -0.237248689, 0.0618925095
   3905, -0.229037717,  0.059516307
   3906,  -0.22082673, 0.0571401007
   3907, -0.212615758, 0.0547638983
   3908, -0.204404771, 0.0523876958
   3909, -0.196193799, 0.0500114895
   3910, -0.187982813,  0.047635287
   3911, -0.179771841, 0.0452590846
   3912, -0.171560869, 0.0428828783
   3913, -0.163349882, 0.0405066758
   3914,  -0.15513891, 0.0381304696
   3915, -0.146927923, 0.0357542671
   3916, -0.138716951, 0.0333780646
   3917, -0.130505964, 0.0310018603
   3918, -0.122294992, 0.0286256559
   3919, -0.114084013, 0.0262494516
   3920, -0.105873033, 0.0238732472
   3921, -0.491776407,  0.152498156
   3922, -0.483552814,  0.149823904
   3923,  -0.47532922,  0.147149637
   3924, -0.467105657,  0.144475386
   3925, -0.458882064,  0.141801119
   3926,  -0.45065847,  0.139126867
   3927, -0.442434877,  0.136452615
   3928, -0.434211284,  0.133778349
   3929, -0.425987691,  0.131104097
   3930, -0.417764097,   0.12842983
   3931, -0.409540504,  0.125755578
   3932, -0.401316941,  0.123081319
   3933, -0.393093348,  0.120407067
   3934, -0.384869754,  0.117732808
   3935, -0.376646161,  0.115058549
   3936, -0.368422568,   0.11238429
   3937, -0.360198975,   0.10971003
   3938, -0.351975381,  0.107035778
   3939, -0.343751788,  0.104361519
   3940, -0.335528225,   0.10168726
   3941, -0.327304631, 0.0990130007
   3942, -0.319081038, 0.0963387489
   3943, -0.310857445, 0.0936644897
   3944, -0.302633852, 0.0909902304
   3945, -0.294410259, 0.0883159712
   3946, -0.286186665,  0.085641712
   3947, -0.277963072, 0.0829674602
   3948, -0.269739509, 0.0802932009
   3949, -0.261515915, 0.0776189417
   3950, -0.253292322, 0.0749446824
   3951, -0.245068729, 0.0722704232
   3952, -0.236845136, 0.0695961714
   3953, -0.228621542, 0.0669219121
   3954, -0.220397964, 0.0642476529
   3955, -0.212174371, 0.0615733974
   3956, -0.203950778, 0.0588991381
   3957, -0.195727184, 0.0562248826
   3958, -0.187503606, 0.0535506234
   3959, -0.179280013, 0.0508763641
   3960,  -0.17105642, 0.0482021086
   3961, -0.162832826, 0.0455278493
   3962, -0.154609248, 0.0428535938
   3963, -0.146385655, 0.0401793346
   3964, -0.138162062, 0.0375050791
   3965, -0.129938468, 0.0348308198
   3966, -0.121714883, 0.0321565606
   3967, -0.113491297,  0.029482305
   3968, -0.105267704, 0.0268080477
   3969,  -0.49176234,  0.169441119
   3970,  -0.48352468,  0.166468441
   3971,  -0.47528705,  0.163495779
   3972,  -0.46704939,  0.160523102
   3973,  -0.45881173,  0.157550424
   3974,  -0.45057407,  0.154577762
   3975,  -0.44233644,  0.151605085
   3976,  -0.43409878,  0.148632407
   3977,  -0.42586112,  0.145659745
   3978,  -0.41762346,  0.142687067
   3979,  -0.40938583,   0.13971439
   3980,  -0.40114817,  0.136741728
   3981,  -0.39291051,   0.13376905
   3982,  -0.38467285,  0.130796373
   3983,  -0.37643519,   0.12782371
   3984,  -0.36819756,  0.124851033
   3985,   -0.3599599,  0.121878356
   3986,  -0.35172224,  0.118905686
   3987, -0.343484581,  0.115933016
   3988,  -0.33524695,  0.112960339
   3989,  -0.32700929,  0.109987669
   3990, -0.318771631,  0.107014999
   3991, -0.310533971,  0.104042321
   3992,  -0.30229634,  0.101069652
   3993, -0.294058681, 0.0980969742
   3994, -0.285821021, 0.0951243043
   3995, -0.277583361, 0.0921516344
   3996, -0.269345701,  0.089178957
   3997, -0.261108071, 0.0862062871
   3998, -0.252870411, 0.0832336172
   3999, -0.244632751, 0.0802609399
   4000, -0.236395106,   0.07728827
   4001, -0.228157446, 0.0743155926
   4002, -0.219919801, 0.0713429227
   4003, -0.211682141, 0.0683702528
   4004, -0.203444496, 0.0653975755
   4005, -0.195206836, 0.0624249056
   4006, -0.186969176,  0.059452232
   4007, -0.178731531, 0.0564795621
   4008, -0.170493871, 0.0535068884
   4009, -0.162256226, 0.0505342148
   4010, -0.154018566, 0.0475615412
   4011, -0.145780921, 0.0445888713
   4012, -0.137543261, 0.0416161977
   4013, -0.129305616, 0.0386435241
   4014, -0.121067956, 0.0356708504
   4015, -0.112830304, 0.0326981805
   4016, -0.104592651, 0.0297255069
   4017, -0.491746843,   0.18638368
   4018, -0.483493686,  0.183112189
   4019, -0.475240529,  0.179840714
   4020, -0.466987371,  0.176569223
   4021, -0.458734214,  0.173297733
   4022, -0.450481057,  0.170026243
   4023,   -0.4422279,  0.166754752
   4024, -0.433974743,  0.163483262
   4025, -0.425721556,  0.160211787
   4026, -0.417468399,  0.156940296
   4027, -0.409215242,  0.153668806
   4028, -0.400962085,  0.150397316
   4029, -0.392708927,  0.147125825
   4030,  -0.38445577,  0.143854335
   4031, -0.376202613,  0.140582845
   4032, -0.367949456,  0.137311369
   4033, -0.359696299,  0.134039879
   4034, -0.351443142,  0.130768389
   4035, -0.343189985,  0.127496898
   4036, -0.334936827,  0.124225408
   4037,  -0.32668367,  0.120953925
   4038, -0.318430513,  0.117682435
   4039, -0.310177356,  0.114410944
   4040, -0.301924199,  0.111139461
   4041, -0.293671042,  0.107867971
   4042, -0.285417855,  0.104596481
   4043, -0.277164698,  0.101324998
   4044, -0.268911541, 0.0980535075
   4045, -0.260658383, 0.0947820172
   4046, -0.252405226, 0.0915105268
   4047, -0.244152069,  0.088239044
   4048, -0.235898912, 0.0849675536
   4049, -0.227645755, 0.0816960633
   4050, -0.219392598, 0.0784245804
   4051, -0.211139441, 0.0751530901
   4052, -0.202886283, 0.0718815997
   4053, -0.194633126, 0.0686101168
   4054, -0.186379969, 0.0653386265
   4055, -0.178126797, 0.0620671362
   4056,  -0.16987364, 0.0587956496
   4057, -0.161620483, 0.0555241629
   4058, -0.153367326, 0.0522526726
   4059, -0.145114169,  0.048981186
   4060, -0.136861011, 0.0457096994
   4061, -0.128607854, 0.0424382091
   4062,  -0.12035469, 0.0391667224
   4063, -0.112101533, 0.0358952321
   4064, -0.103848375, 0.0326237455
   4065, -0.491729915,  0.203325808
   4066,   -0.4834598,  0.199755073
   4067, -0.475189716,  0.196184322
   4068, -0.466919631,  0.192613587
   4069, -0.458649516,  0.189042836
   4070, -0.450379431,  0.185472101
   4071, -0.442109317,  0.181901351
   4072, -0.433839232,  0.178330615
   4073, -0.425569147,  0.174759865
   4074, -0.417299032,  0.171189129
   4075, -0.409028947,  0.167618379
   4076, -0.400758862,  0.164047644
   4077, -0.392488748,  0.160476893
   4078, -0.384218663,  0.156906158
   4079, -0.375948578,  0.153335407
   4080, -0.367678463,  0.149764672
   4081, -0.359408379,  0.146193922
   4082, -0.351138294,  0.142623186
   4083, -0.342868179,  0.139052436
   4084, -0.334598094,    0.1354817
   4085,  -0.32632798,   0.13191095
   4086, -0.318057895,  0.128340214
   4087,  -0.30978781,  0.124769464
   4088, -0.301517695,  0.121198721
   4089,  -0.29324761,  0.117627978
   4090, -0.284977525,  0.114057235
   4091, -0.276707411,  0.110486493
   4092, -0.268437326,   0.10691575
   4093, -0.260167241,  0.103345007
   4094, -0.251897126, 0.0997742638
   4095, -0.243627042, 0.0962035209
   4096, -0.235356942,  0.092632778
   4097, -0.227086842, 0.0890620351
   4098, -0.218816757, 0.0854912922
   4099, -0.210546657, 0.0819205493
   4100, -0.202276558, 0.0783498064
   4101, -0.194006458, 0.0747790635
   4102, -0.185736373, 0.0712083206
   4103, -0.177466273, 0.0676375777
   4104, -0.169196174, 0.0640668422
   4105, -0.160926089, 0.0604960956
   4106, -0.152655989, 0.0569253527
   4107, -0.144385889, 0.0533546098
   4108, -0.136115789, 0.0497838669
   4109, -0.127845705, 0.0462131239
   4110, -0.119575605,  0.042642381
   4111, -0.111305505, 0.0390716381
   4112, -0.103035413, 0.0355008952
   4113, -0.491711557,   0.22026746
   4114, -0.483423084,  0.216396973
   4115, -0.475134641,    0.2125265
   4116, -0.466846198,  0.208656028
   4117, -0.458557755,  0.204785556
   4118, -0.450269282,  0.200915083
   4119, -0.441980839,  0.197044596
   4120, -0.433692396,  0.193174124
   4121, -0.425403953,  0.189303651
   4122,  -0.41711548,  0.185433179
   4123, -0.408827037,  0.181562707
   4124, -0.400538594,   0.17769222
   4125,  -0.39225015,  0.173821747
   4126, -0.383961678,  0.169951275
   4127, -0.375673234,  0.166080803
   4128, -0.367384791,  0.162210315
   4129, -0.359096348,  0.158339843
   4130, -0.350807875,  0.154469371
   4131, -0.342519432,  0.150598899
   4132, -0.334230989,  0.146728426
   4133, -0.325942546,  0.142857939
   4134, -0.317654073,  0.138987467
   4135,  -0.30936563,  0.135116994
   4136, -0.301077187,  0.131246522
   4137, -0.292788744,   0.12737605
   4138, -0.284500271,   0.12350557
   4139, -0.276211828,   0.11963509
   4140, -0.267923385,  0.115764618
   4141, -0.259634942,  0.111894138
   4142, -0.251346469,  0.108023666
   4143, -0.243058026,  0.104153186
   4144, -0.234769583,  0.100282714
   4145, -0.226481125, 0.0964122415
   4146, -0.218192682, 0.0925417617
   4147, -0.209904224, 0.0886712894
   4148, -0.201615781, 0.0848008096
   4149, -0.193327323, 0.0809303373
   4150,  -0.18503888, 0.0770598575
   4151, -0.176750422, 0.0731893852
   4152, -0.168461978, 0.0693189129
   4153,  -0.16017352, 0.0654484332
   4154, -0.151885077, 0.0615779571
   4155, -0.143596619, 0.0577074848
   4156, -0.135308176, 0.0538370088
   4157, -0.127019718, 0.0499665327
   4158, -0.118731268, 0.0460960567
   4159, -0.110442817, 0.0422255807
   4160, -0.102154367, 0.0383551046
   4161, -0.491691798,   0.23720859
   4162, -0.483383566,  0.233037859
   4163, -0.475075364,  0.228867143
   4164, -0.466767162,  0.224696413
   4165,  -0.45845896,  0.220525682
   4166, -0.450150728,  0.216354966
   4167, -0.441842526,  0.212184235
   4168, -0.433534324,   0.20801352
   4169, -0.425226092,  0.203842789
   4170,  -0.41691789,  0.199672073
   4171, -0.408609688,  0.195501342
   4172, -0.400301456,  0.191330612
   4173, -0.391993254,  0.187159896
   4174, -0.383685052,  0.182989165
   4175,  -0.37537685,  0.178818449
   4176, -0.367068619,  0.174647719
   4177, -0.358760417,  0.170477003
   4178, -0.350452214,  0.166306272
   4179, -0.342143983,  0.162135541
   4180, -0.333835781,  0.157964826
   4181, -0.325527579,  0.153794095
   4182, -0.317219377,  0.149623379
   4183, -0.308911145,  0.145452648
   4184, -0.300602943,  0.141281918
   4185, -0.292294741,  0.137111202
   4186, -0.283986509,  0.132940471
   4187, -0.275678307,  0.128769755
   4188, -0.267370105,  0.124599025
   4189, -0.259061873,  0.120428301
   4190, -0.250753671,  0.116257578
   4191, -0.242445469,  0.112086855
   4192, -0.234137252,  0.107916132
   4193,  -0.22582905,  0.103745408
   4194, -0.217520833, 0.0995746776
   4195, -0.209212616, 0.0954039544
   4196, -0.200904414, 0.0912332311
   4197, -0.192596197, 0.0870625079
   4198, -0.184287995, 0.0828917846
   4199, -0.175979778, 0.0787210613
   4200, -0.167671576, 0.0745503381
   4201, -0.159363359, 0.0703796074
   4202, -0.151055142, 0.0662088841
   4203,  -0.14274694, 0.0620381609
   4204, -0.134438723, 0.0578674376
   4205, -0.126130521, 0.0536967143
   4206, -0.117822304, 0.0495259874
   4207, -0.109514095, 0.0453552641
   4208, -0.101205885, 0.0411845408
   4209, -0.491670638,  0.254149169
   4210, -0.483341277,  0.249677628
   4211, -0.475011915,  0.245206103
   4212, -0.466682553,  0.240734577
   4213, -0.458353192,  0.236263052
   4214,  -0.45002383,  0.231791526
   4215, -0.441694468,  0.227320001
   4216, -0.433365107,  0.222848475
   4217, -0.425035745,  0.218376949
   4218, -0.416706383,  0.213905424
   4219, -0.408377022,  0.209433883
   4220,  -0.40004766,  0.204962358
   4221, -0.391718298,  0.200490832
   4222, -0.383388937,  0.196019307
   4223, -0.375059575,  0.191547781
   4224, -0.366730213,  0.187076256
   4225, -0.358400851,   0.18260473
   4226,  -0.35007149,  0.178133205
   4227, -0.341742128,  0.173661679
   4228, -0.333412766,  0.169190139
   4229, -0.325083405,  0.164718613
   4230, -0.316754043,  0.160247087
   4231, -0.308424681,  0.155775562
   4232,  -0.30009532,  0.151304036
   4233, -0.291765958,  0.146832511
   4234, -0.283436596,  0.142360985
   4235, -0.275107235,   0.13788946
   4236, -0.266777873,  0.133417919
   4237, -0.258448511,  0.128946394
   4238,  -0.25011915,  0.124474868
   4239, -0.241789803,  0.120003343
   4240, -0.233460441,  0.115531817
   4241,  -0.22513108,  0.111060292
   4242, -0.216801718,  0.106588766
   4243, -0.208472356,  0.102117233
   4244, -0.200142995, 0.0976457074
   4245, -0.191813633, 0.0931741819
   4246, -0.183484271, 0.0887026563
   4247, -0.175154909, 0.0842311233
   4248, -0.166825548, 0.0797595978
   4249, -0.158496186, 0.0752880722
   4250, -0.150166824, 0.0708165467
   4251, -0.141837463, 0.0663450211
   4252, -0.133508101, 0.0618734919
   4253, -0.125178739, 0.0574019626
   4254, -0.116849378,  0.052930437
   4255, -0.108520016, 0.0484589078
   4256, -0.100190654, 0.0439873822
   4257, -0.491648108,  0.271089137
   4258, -0.483296216,  0.266316235
   4259, -0.474944353,  0.261543304
   4260, -0.466592461,  0.256770372
   4261, -0.458240569,  0.251997471
   4262, -0.449888676,   0.24722454
   4263, -0.441536784,  0.242451623
   4264, -0.433184892,  0.237678692
   4265,  -0.42483303,  0.232905775
   4266, -0.416481137,  0.228132859
   4267, -0.408129245,  0.223359928
   4268, -0.399777353,  0.218587011
   4269, -0.391425461,  0.213814095
   4270, -0.383073598,  0.209041163
   4271, -0.374721706,  0.204268247
   4272, -0.366369814,   0.19949533
   4273, -0.358017921,  0.194722399
   4274, -0.349666029,  0.189949483
   4275, -0.341314137,  0.185176551
   4276, -0.332962275,  0.180403635
   4277, -0.324610382,  0.175630718
   4278,  -0.31625849,  0.170857787
   4279, -0.307906598,  0.166084871
   4280, -0.299554706,  0.161311954
   4281, -0.291202813,  0.156539023
   4282, -0.282850951,  0.151766106
   4283, -0.274499059,   0.14699319
   4284, -0.266147166,  0.142220259
   4285, -0.257795274,  0.137447342
   4286, -0.249443397,  0.132674426
   4287, -0.241091505,  0.127901495
   4288, -0.232739612,  0.123128578
   4289, -0.224387735,  0.118355654
   4290, -0.216035843,  0.113582738
   4291, -0.207683966,  0.108809814
   4292, -0.199332073,   0.10403689
   4293, -0.190980181, 0.0992639661
   4294, -0.182628304, 0.0944910496
   4295, -0.174276412, 0.0897181258
   4296, -0.165924519, 0.0849452019
   4297, -0.157572642, 0.0801722854
   4298,  -0.14922075, 0.0753993616
   4299, -0.140868858, 0.0706264377
   4300,  -0.13251698, 0.0658535212
   4301, -0.124165088, 0.0610805973
   4302, -0.115813203, 0.0563076735
   4303, -0.107461318, 0.0515347533
   4304, -0.0991094261, 0.0467618331
   4305, -0.491624236,  0.288028508
   4306, -0.483248472,   0.28295356
   4307, -0.474872679,  0.277878612
   4308, -0.466496915,  0.272803664
   4309, -0.458121151,  0.267728716
   4310, -0.449745387,  0.262653768
   4311, -0.441369593,   0.25757885
   4312, -0.432993829,  0.252503902
   4313, -0.424618065,  0.247428954
   4314, -0.416242301,  0.242354006
   4315, -0.407866508,  0.237279058
   4316, -0.399490744,  0.232204109
   4317,  -0.39111498,  0.227129176
   4318, -0.382739216,  0.222054228
   4319, -0.374363422,   0.21697928
   4320, -0.365987659,  0.211904332
   4321, -0.357611895,  0.206829399
   4322, -0.349236131,  0.201754451
   4323, -0.340860367,  0.196679503
   4324, -0.332484573,  0.191604555
   4325, -0.324108809,  0.186529621
   4326, -0.315733045,  0.181454673
   4327, -0.307357281,  0.176379725
   4328, -0.298981488,  0.171304777
   4329, -0.290605724,  0.166229844
   4330,  -0.28222996,  0.161154896
   4331, -0.273854196,  0.156079948
   4332, -0.265478402,     0.151005
   4333, -0.257102638,  0.145930067
   4334, -0.248726875,  0.140855119
   4335, -0.240351096,  0.135780171
   4336, -0.231975332,  0.130705222
   4337, -0.223599553,  0.125630274
   4338, -0.215223789,  0.120555334
   4339, -0.206848025,  0.115480393
   4340, -0.198472247,  0.110405445
   4341, -0.190096483,  0.105330504
   4342, -0.181720704,  0.100255556
   4343,  -0.17334494, 0.0951806158
   4344, -0.164969161, 0.0901056677
   4345, -0.156593397, 0.0850307271
   4346, -0.148217618,  0.079955779
   4347, -0.139841855, 0.0748808384
   4348, -0.131466076, 0.0698058903
   4349, -0.123090312, 0.0647309497
   4350, -0.114714541, 0.0596560054
   4351, -0.106338769,  0.054581061
   4352, -0.0979629979, 0.0495061167
   4353, -0.491598994,  0.304967195
   4354, -0.483198017,  0.299589574
   4355,  -0.47479701,  0.294211924
   4356, -0.466396004,  0.288834304
   4357, -0.457995027,  0.283456653
   4358, -0.449594021,  0.278079033
   4359, -0.441193014,  0.272701412
   4360, -0.432792038,  0.267323762
   4361, -0.424391031,  0.261946142
   4362, -0.415990055,  0.256568491
   4363, -0.407589048,  0.251190871
   4364, -0.399188042,  0.245813236
   4365, -0.390787065,    0.2404356
   4366, -0.382386059,   0.23505798
   4367, -0.373985052,  0.229680344
   4368, -0.365584075,  0.224302709
   4369, -0.357183069,  0.218925074
   4370, -0.348782063,  0.213547453
   4371, -0.340381086,  0.208169818
   4372, -0.331980079,  0.202792183
   4373, -0.323579073,  0.197414547
   4374, -0.315178096,  0.192036912
   4375,  -0.30677709,  0.186659291
   4376, -0.298376113,  0.181281656
   4377, -0.289975107,  0.175904021
   4378,   -0.2815741,  0.170526385
   4379, -0.273173124,   0.16514875
   4380, -0.264772117,  0.159771129
   4381, -0.256371111,  0.154393494
   4382, -0.247970119,  0.149015859
   4383, -0.239569128,  0.143638223
   4384, -0.231168136,  0.138260588
   4385, -0.222767144,  0.132882968
   4386, -0.214366138,  0.127505332
   4387, -0.205965146,  0.122127697
   4388, -0.197564155,  0.116750062
   4389, -0.189163148,  0.111372434
   4390, -0.180762157,  0.105994798
   4391, -0.172361165,   0.10061717
   4392, -0.163960174,  0.095239535
   4393, -0.155559167, 0.0898618996
   4394, -0.147158176, 0.0844842717
   4395, -0.138757184, 0.0791066363
   4396, -0.130356178, 0.0737290084
   4397, -0.121955186, 0.0683513731
   4398, -0.113554195, 0.0629737377
   4399, -0.105153196, 0.0575961098
   4400, -0.0967521966, 0.0522184782
   4401, -0.491572469,  0.321905196
   4402, -0.483144909,  0.316224158
   4403, -0.474717379,   0.31054315
   4404, -0.466289818,  0.304862112
   4405, -0.457862288,  0.299181104
   4406, -0.449434727,  0.293500066
   4407, -0.441007197,  0.287819058
   4408, -0.432579666,   0.28213805
   4409, -0.424152106,  0.276457012
   4410, -0.415724576,  0.270776004
   4411, -0.407297015,  0.265094966
   4412, -0.398869485,  0.259413958
   4413, -0.390441924,   0.25373292
   4414, -0.382014394,  0.248051912
   4415, -0.373586863,  0.242370889
   4416, -0.365159303,  0.236689866
   4417, -0.356731772,  0.231008843
   4418, -0.348304212,   0.22532782
   4419, -0.339876682,  0.219646797
   4420, -0.331449151,  0.213965774
   4421, -0.323021591,  0.208284765
   4422,  -0.31459406,  0.202603742
   4423,   -0.3061665,  0.196922719
   4424, -0.297738969,  0.191241696
   4425, -0.289311409,  0.185560673
   4426, -0.280883878,   0.17987965
   4427, -0.272456348,  0.174198627
   4428, -0.264028788,  0.168517604
   4429, -0.255601257,  0.162836596
   4430, -0.247173712,  0.157155573
   4431, -0.238746166,   0.15147455
   4432, -0.230318621,  0.145793527
   4433, -0.221891075,  0.140112504
   4434,  -0.21346353,  0.134431481
   4435, -0.205035985,  0.128750458
   4436, -0.196608439,  0.123069443
   4437, -0.188180909,   0.11738842
   4438, -0.179753363,  0.111707397
   4439, -0.171325818,  0.106026374
   4440, -0.162898272,  0.100345358
   4441, -0.154470727, 0.0946643353
   4442, -0.146043181, 0.0889833122
   4443, -0.137615636, 0.0833022892
   4444, -0.129188105, 0.0776212662
   4445,  -0.12076056, 0.0719402507
   4446, -0.112333015, 0.0662592277
   4447, -0.103905469, 0.0605782047
   4448, -0.0954779238, 0.0548971854
   4449, -0.491544604,  0.338842452
   4450, -0.483089209,  0.332857281
   4451, -0.474633813,   0.32687214
   4452, -0.466178417,  0.320886999
   4453, -0.457723022,  0.314901859
   4454, -0.449267626,  0.308916718
   4455,  -0.44081226,  0.302931547
   4456, -0.432356864,  0.296946406
   4457, -0.423901469,  0.290961266
   4458, -0.415446073,  0.284976125
   4459, -0.406990677,  0.278990984
   4460, -0.398535281,  0.273005813
   4461, -0.390079886,  0.267020673
   4462,  -0.38162449,  0.261035532
   4463, -0.373169094,  0.255050391
   4464, -0.364713699,  0.249065235
   4465, -0.356258303,  0.243080094
   4466, -0.347802907,  0.237094939
   4467, -0.339347512,  0.231109798
   4468, -0.330892116,  0.225124642
   4469,  -0.32243675,  0.219139501
   4470, -0.313981354,  0.213154361
   4471, -0.305525959,  0.207169205
   4472, -0.297070563,  0.201184064
   4473, -0.288615167,  0.195198908
   4474, -0.280159771,  0.189213768
   4475, -0.271704376,  0.183228612
   4476,  -0.26324898,  0.177243471
   4477, -0.254793584,   0.17125833
   4478, -0.246338189,  0.165273175
   4479, -0.237882808,  0.159288034
   4480, -0.229427412,  0.153302878
   4481, -0.220972016,  0.147317737
   4482, -0.212516621,  0.141332597
   4483, -0.204061225,  0.135347441
   4484, -0.195605829,    0.1293623
   4485, -0.187150434,  0.123377152
   4486, -0.178695053,  0.117392004
   4487, -0.170239657,  0.111406855
   4488, -0.161784261,  0.105421707
   4489, -0.153328866, 0.0994365588
   4490,  -0.14487347,  0.093451418
   4491, -0.136418074, 0.0874662697
   4492, -0.127962679, 0.0814811215
   4493,  -0.11950729, 0.0754959732
   4494, -0.111051895,  0.069510825
   4495, -0.102596506, 0.0635256767
   4496, -0.0941411108, 0.0575405322
   4497, -0.491515487,  0.355778933
   4498, -0.483030945,  0.349488884
   4499, -0.474546432,  0.343198836
   4500,  -0.46606189,  0.336908787
   4501, -0.457577378,  0.330618739
   4502, -0.449092835,  0.324328691
   4503, -0.440608323,  0.318038642
   4504,  -0.43212378,  0.311748624
   4505, -0.423639268,  0.305458575
   4506, -0.415154725,  0.299168527
   4507, -0.406670213,  0.292878479
   4508,  -0.39818567,   0.28658843
   4509, -0.389701158,  0.280298382
   4510, -0.381216645,  0.274008334
   4511, -0.372732103,  0.267718315
   4512,  -0.36424759,  0.261428267
   4513, -0.355763048,  0.255138218
   4514, -0.347278535,   0.24884817
   4515, -0.338793993,  0.242558122
   4516,  -0.33030948,  0.236268073
   4517, -0.321824938,   0.22997804
   4518, -0.313340425,  0.223687991
   4519, -0.304855883,  0.217397943
   4520, -0.296371371,   0.21110791
   4521, -0.287886828,  0.204817861
   4522, -0.279402316,  0.198527813
   4523, -0.270917773,  0.192237765
   4524, -0.262433261,  0.185947731
   4525, -0.253948748,  0.179657683
   4526, -0.245464206,  0.173367634
   4527, -0.236979678,  0.167077586
   4528, -0.228495151,  0.160787553
   4529, -0.220010623,  0.154497504
   4530, -0.211526096,  0.148207456
   4531, -0.203041583,  0.141917422
   4532, -0.194557056,  0.135627374
   4533, -0.186072528,  0.129337326
   4534, -0.177588001,  0.123047285
   4535, -0.169103473,  0.116757236
   4536, -0.160618946,  0.110467196
   4537, -0.152134418,  0.104177147
   4538, -0.143649891, 0.0978871062
   4539, -0.135165364, 0.0915970653
   4540, -0.126680836,  0.085307017
   4541, -0.118196316, 0.0790169761
   4542, -0.109711789, 0.0727269277
   4543, -0.101227261, 0.0664368868
   4544, -0.0927427337, 0.0601468422
   4545, -0.491485089,  0.372714609
   4546, -0.482970148,  0.366118848
   4547, -0.474455237,  0.359523088
   4548, -0.465940326,  0.352927357
   4549, -0.457425386,  0.346331596
   4550, -0.448910475,  0.339735866
   4551, -0.440395564,  0.333140105
   4552, -0.431880623,  0.326544374
   4553, -0.423365712,  0.319948614
   4554, -0.414850801,  0.313352853
   4555,  -0.40633589,  0.306757122
   4556,  -0.39782095,  0.300161362
   4557, -0.389306039,  0.293565631
   4558, -0.380791128,   0.28696987
   4559, -0.372276187,   0.28037414
   4560, -0.363761276,  0.273778379
   4561, -0.355246365,  0.267182648
   4562, -0.346731424,  0.260586888
   4563, -0.338216513,  0.253991127
   4564, -0.329701602,  0.247395396
   4565, -0.321186662,  0.240799636
   4566, -0.312671751,   0.23420389
   4567,  -0.30415684,  0.227608144
   4568, -0.295641899,  0.221012399
   4569, -0.287126988,  0.214416653
   4570, -0.278612077,  0.207820907
   4571, -0.270097136,  0.201225162
   4572, -0.261582226,  0.194629416
   4573, -0.253067315,  0.188033655
   4574, -0.244552389,   0.18143791
   4575, -0.236037463,  0.174842164
   4576, -0.227522552,  0.168246418
   4577, -0.219007626,  0.161650673
   4578,   -0.2104927,  0.155054927
   4579, -0.201977789,  0.148459181
   4580, -0.193462864,  0.141863421
   4581, -0.184947938,  0.135267675
   4582, -0.176433027,  0.128671929
   4583, -0.167918101,  0.122076184
   4584,  -0.15940319,  0.115480438
   4585, -0.150888264,  0.108884685
   4586, -0.142373338,  0.102288939
   4587, -0.133858427, 0.0956931934
   4588, -0.125343502, 0.0890974477
   4589, -0.116828583, 0.0825016946
   4590, -0.108313657, 0.0759059489
   4591, -0.099798739, 0.0693102032
   4592, -0.0912838206, 0.0627144575
   4593, -0.491453439,  0.389649421
   4594, -0.482906908,  0.382747144
   4595, -0.474360347,  0.375844836
   4596, -0.465813786,  0.368942559
   4597, -0.457267225,  0.362040281
   4598, -0.448720694,  0.355137974
   4599, -0.440174133,  0.348235697
   4600, -0.431627572,  0.341333389
   4601, -0.423081011,  0.334431112
   4602, -0.414534479,  0.327528805
   4603, -0.405987918,  0.320626527
   4604, -0.397441357,   0.31372422
   4605, -0.388894796,  0.306821942
   4606, -0.380348265,  0.299919635
   4607, -0.371801704,  0.293017358
   4608, -0.363255143,   0.28611508
   4609, -0.354708582,  0.279212773
   4610, -0.346162051,  0.272310495
   4611,  -0.33761549,  0.265408188
   4612, -0.329068929,  0.258505911
   4613, -0.320522368,  0.251603603
   4614, -0.311975837,  0.244701326
   4615, -0.303429276,  0.237799034
   4616, -0.294882715,  0.230896741
   4617, -0.286336154,  0.223994449
   4618, -0.277789623,  0.217092156
   4619, -0.269243062,  0.210189864
   4620, -0.260696501,  0.203287572
   4621,  -0.25214994,  0.196385279
   4622, -0.243603393,  0.189482987
   4623, -0.235056847,  0.182580695
   4624, -0.226510286,  0.175678402
   4625,  -0.21796374,   0.16877611
   4626, -0.209417194,  0.161873832
   4627, -0.200870633,   0.15497154
   4628, -0.192324087,  0.148069248
   4629, -0.183777526,  0.141166955
   4630,  -0.17523098,  0.134264663
   4631, -0.166684419,   0.12736237
   4632, -0.158137873,  0.120460078
   4633, -0.149591312,  0.113557786
   4634, -0.141044766,  0.106655493
   4635, -0.132498205, 0.0997532085
   4636, -0.123951651, 0.0928509161
   4637, -0.115405098, 0.0859486237
   4638, -0.106858544, 0.0790463313
   4639, -0.0983119905,  0.072144039
   4640, -0.0897654369, 0.0652417466
   4641, -0.491420597,  0.406583399
   4642, -0.482841194,   0.39937368
   4643, -0.474261791,  0.392163992
   4644, -0.465682387,  0.384954274
   4645, -0.457102984,  0.377744555
   4646, -0.448523581,  0.370534867
   4647, -0.439944178,  0.363325149
   4648, -0.431364775,  0.356115431
   4649, -0.422785372,  0.348905742
   4650, -0.414205968,  0.341696024
   4651, -0.405626565,  0.334486306
   4652, -0.397047192,  0.327276617
   4653, -0.388467789,  0.320066899
   4654, -0.379888386,  0.312857181
   4655, -0.371308982,  0.305647492
   4656, -0.362729579,  0.298437774
   4657, -0.354150176,  0.291228086
   4658, -0.345570773,  0.284018368
   4659,  -0.33699137,  0.276808649
   4660, -0.328411967,  0.269598961
   4661, -0.319832563,  0.262389243
   4662,  -0.31125316,  0.255179524
   4663, -0.302673757,  0.247969821
   4664, -0.294094354,  0.240760118
   4665, -0.285514951,  0.233550414
   4666, -0.276935548,  0.226340696
   4667, -0.268356144,  0.219130993
   4668, -0.259776741,   0.21192129
   4669, -0.251197338,  0.204711571
   4670,  -0.24261795,  0.197501868
   4671, -0.234038547,  0.190292165
   4672, -0.225459144,  0.183082461
   4673,  -0.21687974,  0.175872743
   4674, -0.208300337,   0.16866304
   4675, -0.199720934,  0.161453336
   4676, -0.191141531,  0.154243618
   4677, -0.182562128,  0.147033915
   4678, -0.173982725,  0.139824212
   4679, -0.165403321,  0.132614493
   4680, -0.156823918,   0.12540479
   4681, -0.148244515,  0.118195087
   4682, -0.139665127,  0.110985376
   4683, -0.131085724,  0.103775665
   4684, -0.122506313, 0.0965659618
   4685, -0.113926917, 0.0893562511
   4686, -0.105347514, 0.0821465477
   4687, -0.096768111,  0.074936837
   4688, -0.0881887078, 0.0677271262
   4689, -0.491386563,  0.423516452
   4690, -0.482773125,  0.415998429
   4691, -0.474159688,  0.408480406
   4692, -0.465546221,  0.400962353
   4693, -0.456932783,   0.39344433
   4694, -0.448319346,  0.385926306
   4695, -0.439705908,  0.378408283
   4696, -0.431092471,   0.37089023
   4697, -0.422479033,  0.363372207
   4698, -0.413865566,  0.355854183
   4699, -0.405252129,   0.34833616
   4700, -0.396638691,  0.340818107
   4701, -0.388025254,  0.333300084
   4702, -0.379411817,  0.325782061
   4703, -0.370798379,  0.318264037
   4704, -0.362184912,  0.310745984
   4705, -0.353571475,  0.303227961
   4706, -0.344958037,  0.295709938
   4707,   -0.3363446,  0.288191915
   4708, -0.327731162,  0.280673891
   4709, -0.319117725,  0.273155838
   4710, -0.310504287,  0.265637815
   4711,  -0.30189082,  0.258119792
   4712, -0.293277383,  0.250601768
   4713, -0.284663945,   0.24308373
   4714, -0.276050508,  0.235565692
   4715, -0.267437071,  0.228047669
   4716, -0.258823633,  0.220529631
   4717, -0.250210166,  0.213011608
   4718, -0.241596743,  0.205493569
   4719, -0.232983291,  0.197975546
   4720, -0.224369854,  0.190457508
   4721, -0.215756416,  0.182939485
   4722, -0.207142964,  0.175421447
   4723, -0.198529527,  0.167903423
   4724, -0.189916089,    0.1603854
   4725, -0.181302637,  0.152867362
   4726, -0.172689199,  0.145349339
   4727, -0.164075762,    0.1378313
   4728,  -0.15546231,  0.130313277
   4729, -0.146848872,  0.122795239
   4730, -0.138235435,  0.115277208
   4731, -0.129621997,  0.107759185
   4732, -0.121008545,  0.100241154
   4733, -0.112395108, 0.0927231237
   4734, -0.103781663,  0.085205093
   4735, -0.0951682255, 0.0776870623
   4736, -0.0865547806, 0.0701690316
   4737, -0.491351336,  0.440448582
   4738, -0.482702702,   0.43262127
   4739, -0.474054039,  0.424793988
   4740, -0.465405405,  0.416966707
   4741, -0.456756741,  0.409139425
   4742, -0.448108107,  0.401312113
   4743, -0.439459443,  0.393484831
   4744, -0.430810809,  0.385657549
   4745, -0.422162145,  0.377830237
   4746, -0.413513511,  0.370002955
   4747, -0.404864848,  0.362175673
   4748, -0.396216214,  0.354348361
   4749,  -0.38756755,   0.34652108
   4750, -0.378918916,  0.338693798
   4751, -0.370270252,  0.330866516
   4752, -0.361621618,  0.323039204
   4753, -0.352972955,  0.315211922
   4754, -0.344324321,   0.30738464
   4755, -0.335675657,  0.299557328
   4756, -0.327027023,  0.291730046
   4757, -0.318378359,  0.283902764
   4758, -0.309729725,  0.276075482
   4759, -0.301081061,  0.268248171
   4760, -0.292432427,  0.260420889
   4761, -0.283783764,  0.252593607
   4762,  -0.27513513,   0.24476631
   4763, -0.266486466,  0.236939013
   4764, -0.257837832,  0.229111731
   4765, -0.249189183,  0.221284434
   4766, -0.240540534,  0.213457152
   4767, -0.231891885,  0.205629855
   4768, -0.223243237,  0.197802573
   4769, -0.214594588,  0.189975277
   4770, -0.205945939,   0.18214798
   4771,  -0.19729729,  0.174320698
   4772, -0.188648641,  0.166493401
   4773, -0.179999992,  0.158666119
   4774, -0.171351343,  0.150838822
   4775, -0.162702695,   0.14301154
   4776, -0.154054046,  0.135184243
   4777, -0.145405397,  0.127356946
   4778, -0.136756748,  0.119529665
   4779, -0.128108099,  0.111702368
   4780,  -0.11945945,  0.103875078
   4781, -0.110810801, 0.0960477889
   4782, -0.102162153, 0.0882204995
   4783, -0.0935135037, 0.0803932101
   4784, -0.0848648548, 0.0725659207
   4785, -0.491315007,  0.457379729
   4786, -0.482630014,  0.449242204
   4787, -0.473945022,   0.44110468
   4788, -0.465260029,  0.432967156
   4789, -0.456575006,  0.424829632
   4790, -0.447890013,  0.416692138
   4791, -0.439205021,  0.408554614
   4792, -0.430520028,  0.400417089
   4793, -0.421835035,  0.392279565
   4794, -0.413150042,  0.384142041
   4795,  -0.40446505,  0.376004517
   4796, -0.395780057,  0.367866993
   4797, -0.387095034,  0.359729499
   4798, -0.378410041,  0.351591974
   4799, -0.369725049,   0.34345445
   4800, -0.361040056,  0.335316926
   4801, -0.352355063,  0.327179402
   4802,  -0.34367007,  0.319041878
   4803, -0.334985077,  0.310904354
   4804, -0.326300085,   0.30276686
   4805, -0.317615062,  0.294629335
   4806, -0.308930069,  0.286491811
   4807, -0.300245076,  0.278354287
   4808, -0.291560084,  0.270216763
   4809, -0.282875091,  0.262079239
   4810, -0.274190098,  0.253941715
   4811, -0.265505105,  0.245804206
   4812, -0.256820112,  0.237666696
   4813, -0.248135105,  0.229529172
   4814, -0.239450112,  0.221391648
   4815, -0.230765104,  0.213254124
   4816, -0.222080112,  0.205116615
   4817, -0.213395119,  0.196979091
   4818, -0.204710126,  0.188841566
   4819, -0.196025118,  0.180704057
   4820, -0.187340125,  0.172566533
   4821, -0.178655133,  0.164429009
   4822,  -0.16997014,    0.1562915
   4823, -0.161285132,  0.148153976
   4824, -0.152600139,  0.140016451
   4825, -0.143915147,  0.131878927
   4826, -0.135230154,  0.123741411
   4827, -0.126545146,  0.115603894
   4828, -0.117860153,  0.107466377
   4829, -0.109175161, 0.0993288532
   4830,  -0.10049016, 0.0911913365
   4831, -0.0918051675, 0.0830538124
   4832, -0.0831201673, 0.0749162957
   4833, -0.491277546,  0.474309862
   4834, -0.482555091,  0.465861112
   4835, -0.473832637,  0.457412362
   4836, -0.465110153,  0.448963612
   4837, -0.456387699,  0.440514892
   4838, -0.447665244,  0.432066143
   4839,  -0.43894279,  0.423617393
   4840, -0.430220336,  0.415168643
   4841, -0.421497881,  0.406719893
   4842, -0.412775427,  0.398271143
   4843, -0.404052973,  0.389822394
   4844, -0.395330489,  0.381373644
   4845, -0.386608034,  0.372924894
   4846,  -0.37788558,  0.364476144
   4847, -0.369163126,  0.356027395
   4848, -0.360440671,  0.347578645
   4849, -0.351718217,  0.339129895
   4850, -0.342995763,  0.330681145
   4851, -0.334273309,  0.322232395
   4852, -0.325550824,  0.313783646
   4853,  -0.31682837,  0.305334896
   4854, -0.308105916,  0.296886146
   4855, -0.299383461,  0.288437396
   4856, -0.290661007,  0.279988647
   4857, -0.281938553,  0.271539897
   4858, -0.273216099,  0.263091147
   4859, -0.264493614,  0.254642427
   4860,  -0.25577116,  0.246193662
   4861, -0.247048706,  0.237744913
   4862, -0.238326252,  0.229296163
   4863, -0.229603797,  0.220847413
   4864, -0.220881343,  0.212398663
   4865, -0.212158874,  0.203949928
   4866, -0.203436419,  0.195501179
   4867, -0.194713965,  0.187052429
   4868, -0.185991511,  0.178603679
   4869, -0.177269042,  0.170154929
   4870, -0.168546587,  0.161706179
   4871, -0.159824133,   0.15325743
   4872, -0.151101679,   0.14480868
   4873, -0.142379209,   0.13635993
   4874, -0.133656755,   0.12791118
   4875, -0.124934301,  0.119462438
   4876, -0.116211839,  0.111013688
   4877, -0.107489385,  0.102564938
   4878, -0.098766923, 0.0941161886
   4879, -0.0900444686, 0.0856674463
   4880, -0.0813220069, 0.0772186965
   4881,  0.108127341, 0.00300453929
   4882,  0.116291359, 0.00330114015
   4883,   0.12445537, 0.00359774102
   4884,  0.132619381, 0.00389434188
   4885,  0.140783399, 0.00419094274
   4886,  0.148947418, 0.00448754337
   4887,  0.157111421, 0.00478414446
   4888,   0.16527544, 0.00508074509
   4889,  0.173439458, 0.00537734618
   4890,  0.181603462, 0.00567394681
   4891,   0.18976748, 0.00597054744
   4892,  0.197931498, 0.00626714854
   4893,  0.206095502, 0.00656374916
   4894,   0.21425952, 0.00686035026
   4895,  0.222423539, 0.00715695089
   4896,  0.230587542, 0.00745355198
   4897,   0.23875156, 0.00775015261
   4898,  0.246915579, 0.0080467537
   4899,  0.255079597, 0.00834335387
   4900,  0.263243616, 0.00863995496
   4901,  0.271407604, 0.00893655606
   4902,  0.279571623, 0.00923315715
   4903,  0.287735641, 0.00952975731
   4904,  0.295899659, 0.00982635841
   4905,  0.304063678, 0.0101229595
   4906,  0.312227696, 0.0104195606
   4907,  0.320391685, 0.0107161608
   4908,  0.328555703, 0.0110127619
   4909,  0.336719722, 0.0113093629
   4910,   0.34488374, 0.0116059631
   4911,  0.353047758, 0.0119025642
   4912,  0.361211777, 0.0121991653
   4913,  0.369375795, 0.0124957664
   4914,  0.377539784, 0.0127923666
   4915,  0.385703802, 0.0130889677
   4916,  0.393867821, 0.0133855687
   4917,  0.402031839, 0.0136821689
   4918,  0.410195857,   0.01397877
   4919,  0.418359876, 0.0142753711
   4920,  0.426523864, 0.0145719722
   4921,  0.434687883, 0.0148685724
   4922,  0.442851901, 0.0151651734
   4923,  0.451015919, 0.0154617745
   4924,  0.459179938, 0.0157583747
   4925,  0.467343956, 0.0160549767
   4926,  0.475507945, 0.0163515769
   4927,  0.483671963, 0.0166481771
   4928,  0.491835982, 0.0169447791
   4929,  0.108019598, 0.00600713305
   4930,  0.116185859, 0.00660037529
   4931,   0.12435212, 0.00719361752
   4932,  0.132518381, 0.00778685976
   4933,  0.140684634, 0.00838010199
   4934,  0.148850888, 0.00897334423
   4935,  0.157017156, 0.00956658646
   4936,   0.16518341, 0.0101598287
   4937,  0.173349664, 0.0107530709
   4938,  0.181515932, 0.0113463132
   4939,  0.189682186, 0.0119395554
   4940,  0.197848439, 0.0125327976
   4941,  0.206014693, 0.0131260399
   4942,  0.214180961, 0.0137192821
   4943,  0.222347215, 0.0143125234
   4944,  0.230513468, 0.0149057657
   4945,  0.238679737, 0.0154990079
   4946,   0.24684599, 0.0160922501
   4947,  0.255012244, 0.0166854933
   4948,  0.263178498, 0.0172787346
   4949,  0.271344781, 0.0178719778
   4950,  0.279511034, 0.0184652191
   4951,  0.287677288, 0.0190584622
   4952,  0.295843542, 0.0196517035
   4953,  0.304009795, 0.0202449467
   4954,  0.312176049,  0.020838188
   4955,  0.320342302, 0.0214314293
   4956,  0.328508586, 0.0220246725
   4957,  0.336674839, 0.0226179138
   4958,  0.344841093, 0.0232111569
   4959,  0.353007346, 0.0238043983
   4960,    0.3611736, 0.0243976414
   4961,  0.369339854, 0.0249908827
   4962,  0.377506137, 0.0255841259
   4963,   0.38567239, 0.0261773672
   4964,  0.393838644, 0.0267706104
   4965,  0.402004898, 0.0273638517
   4966,  0.410171151, 0.0279570948
   4967,  0.418337405, 0.0285503361
   4968,  0.426503688, 0.0291435793
   4969,  0.434669942, 0.0297368206
   4970,  0.442836195, 0.0303300638
   4971,  0.451002449, 0.0309233051
   4972,  0.459168702, 0.0315165482
   4973,  0.467334956, 0.0321097896
   4974,  0.475501239, 0.0327030309
   4975,  0.483667493, 0.0332962759
   4976,  0.491833746, 0.0338895172
   4977,  0.107840113, 0.00900583714
   4978,  0.116010115, 0.00989580154
   4979,  0.124180108, 0.0107857659
   4980,  0.132350102, 0.0116757313
   4981,  0.140520111, 0.0125656957
   4982,  0.148690104, 0.0134556601
   4983,  0.156860098, 0.0143456245
   4984,  0.165030107, 0.0152355889
   4985,  0.173200101, 0.0161255542
   4986,  0.181370094, 0.0170155186
   4987,  0.189540088,  0.017905483
   4988,  0.197710097, 0.0187954474
   4989,  0.205880091, 0.0196854118
   4990,  0.214050084, 0.0205753762
   4991,  0.222220078, 0.0214653406
   4992,  0.230390087, 0.0223553069
   4993,  0.238560081, 0.0232452713
   4994,  0.246730074, 0.0241352357
   4995,  0.254900068, 0.0250252001
   4996,  0.263070077, 0.0259151645
   4997,  0.271240056, 0.0268051289
   4998,  0.279410064, 0.0276950933
   4999,  0.287580073, 0.0285850577
   5000,  0.295750052, 0.0294750221
   5001,   0.30392006, 0.0303649884
   5002,  0.312090069, 0.0312549509
   5003,  0.320260048, 0.0321449153
   5004,  0.328430057, 0.0330348797
   5005,  0.336600035, 0.0339248441
   5006,  0.344770044, 0.0348148122
   5007,  0.352940053, 0.0357047766
   5008,  0.361110032,  0.036594741
   5009,   0.36928004, 0.0374847054
   5010,  0.377450049, 0.0383746698
   5011,  0.385620028, 0.0392646343
   5012,  0.393790036, 0.0401545987
   5013,  0.401960015, 0.0410445631
   5014,  0.410130024, 0.0419345275
   5015,  0.418300033, 0.0428244919
   5016,  0.426470011, 0.0437144563
   5017,   0.43464002, 0.0446044207
   5018,  0.442810029, 0.0454943851
   5019,  0.450980008, 0.0463843495
   5020,  0.459150016, 0.0472743139
   5021,  0.467319995, 0.0481642783
   5022,  0.475490004, 0.0490542427
   5023,  0.483660012, 0.0499442071
   5024,  0.491829991, 0.0508341715
   5025,  0.107589021, 0.0119987102
   5026,  0.115764253, 0.0131855188
   5027,  0.123939484, 0.0143723274
   5028,  0.132114708, 0.0155591359
   5029,  0.140289932, 0.0167459436
   5030,  0.148465171, 0.0179327521
   5031,  0.156640396, 0.0191195607
   5032,   0.16481562, 0.0203063693
   5033,  0.172990859, 0.0214931779
   5034,  0.181166083, 0.0226799864
   5035,  0.189341307,  0.023866795
   5036,  0.197516546, 0.0250536036
   5037,   0.20569177, 0.0262404121
   5038,  0.213866994, 0.0274272207
   5039,  0.222042233, 0.0286140293
   5040,  0.230217457, 0.0298008379
   5041,  0.238392681, 0.0309876464
   5042,  0.246567905, 0.0321744531
   5043,  0.254743129, 0.0333612636
   5044,  0.262918383, 0.0345480703
   5045,  0.271093607, 0.0357348807
   5046,  0.279268831, 0.0369216874
   5047,  0.287444055, 0.0381084979
   5048,  0.295619279, 0.0392953046
   5049,  0.303794503,  0.040482115
   5050,  0.311969727, 0.0416689217
   5051,  0.320144981, 0.0428557321
   5052,  0.328320205, 0.0440425389
   5053,  0.336495429, 0.0452293493
   5054,  0.344670653,  0.046416156
   5055,  0.352845877, 0.0476029664
   5056,  0.361021101, 0.0487897731
   5057,  0.369196355, 0.0499765798
   5058,  0.377371579, 0.0511633903
   5059,  0.385546803,  0.052350197
   5060,  0.393722028, 0.0535370074
   5061,  0.401897252, 0.0547238141
   5062,  0.410072476, 0.0559106246
   5063,    0.4182477, 0.0570974313
   5064,  0.426422954, 0.0582842417
   5065,  0.434598178, 0.0594710484
   5066,  0.442773402, 0.0606578588
   5067,  0.450948626, 0.0618446656
   5068,   0.45912385, 0.0630314723
   5069,  0.467299074, 0.0642182827
   5070,  0.475474328, 0.0654050931
   5071,  0.483649552, 0.0665919036
   5072,  0.491824776, 0.0677787066
   5073,  0.107266508, 0.0149838151
   5074,  0.115448453,  0.016467629
   5075,  0.123630404, 0.0179514438
   5076,  0.131812349, 0.0194352586
   5077,  0.139994293, 0.0209190715
   5078,  0.148176253, 0.0224028863
   5079,  0.156358197, 0.0238867011
   5080,  0.164540142,  0.025370514
   5081,  0.172722086, 0.0268543288
   5082,  0.180904031, 0.0283381436
   5083,   0.18908599, 0.0298219565
   5084,  0.197267935, 0.0313057713
   5085,  0.205449879, 0.0327895842
   5086,  0.213631824, 0.0342734009
   5087,  0.221813783, 0.0357572138
   5088,  0.229995728, 0.0372410268
   5089,  0.238177672, 0.0387248434
   5090,  0.246359617, 0.0402086563
   5091,  0.254541576, 0.0416924693
   5092,  0.262723505, 0.0431762859
   5093,  0.270905465, 0.0446600989
   5094,  0.279087424, 0.0461439118
   5095,  0.287269354, 0.0476277284
   5096,  0.295451313, 0.0491115414
   5097,  0.303633243, 0.0505953543
   5098,  0.311815202, 0.0520791709
   5099,  0.319997162, 0.0535629839
   5100,  0.328179091, 0.0550467968
   5101,  0.336361051, 0.0565306135
   5102,   0.34454298, 0.0580144264
   5103,   0.35272494,  0.059498243
   5104,  0.360906899,  0.060982056
   5105,  0.369088829, 0.0624658689
   5106,  0.377270788, 0.0639496818
   5107,  0.385452718, 0.0654334947
   5108,  0.393634677, 0.0669173151
   5109,  0.401816636, 0.0684011281
   5110,  0.409998566,  0.069884941
   5111,  0.418180525, 0.0713687539
   5112,  0.426362485, 0.0728525668
   5113,  0.434544414, 0.0743363798
   5114,  0.442726374, 0.0758202001
   5115,  0.450908303, 0.0773040131
   5116,  0.459090263,  0.078787826
   5117,  0.467272222, 0.0802716389
   5118,  0.475454152, 0.0817554519
   5119,  0.483636111, 0.0832392648
   5120,  0.491818041, 0.0847230852
   5121,  0.106872804, 0.0179592222
   5122,  0.115062952, 0.0197402444
   5123,    0.1232531, 0.0215212647
   5124,  0.131443247, 0.0233022869
   5125,  0.139633402,  0.025083309
   5126,  0.147823557, 0.0268643312
   5127,  0.156013697, 0.0286453534
   5128,  0.164203852, 0.0304263756
   5129,  0.172394007, 0.0322073959
   5130,  0.180584148, 0.0339884199
   5131,  0.188774303, 0.0357694402
   5132,  0.196964458, 0.0375504643
   5133,  0.205154598, 0.0393314846
   5134,  0.213344753, 0.0411125086
   5135,  0.221534908, 0.0428935289
   5136,  0.229725048, 0.0446745493
   5137,  0.237915203, 0.0464555733
   5138,  0.246105358, 0.0482365936
   5139,  0.254295498, 0.0500176176
   5140,  0.262485653,  0.051798638
   5141,  0.270675808,  0.053579662
   5142,  0.278865963, 0.0553606823
   5143,  0.287056088, 0.0571417063
   5144,  0.295246243, 0.0589227267
   5145,  0.303436399,  0.060703747
   5146,  0.311626554,  0.062484771
   5147,  0.319816709, 0.0642657951
   5148,  0.328006864, 0.0660468116
   5149,  0.336196989, 0.0678278357
   5150,  0.344387144, 0.0696088597
   5151,  0.352577299, 0.0713898838
   5152,  0.360767454, 0.0731709003
   5153,  0.368957609, 0.0749519244
   5154,  0.377147764, 0.0767329484
   5155,  0.385337889,  0.078513965
   5156,  0.393528044,  0.080294989
   5157,  0.401718199, 0.0820760131
   5158,  0.409908354, 0.0838570371
   5159,  0.418098509, 0.0856380537
   5160,  0.426288664, 0.0874190778
   5161,   0.43447879, 0.0892001018
   5162,  0.442668945, 0.0909811258
   5163,    0.4508591, 0.0927621424
   5164,  0.459049255, 0.0945431665
   5165,   0.46723941, 0.0963241905
   5166,  0.475429565, 0.0981052071
   5167,   0.48361969, 0.0998862311
   5168,  0.491809845,  0.101667255
   5169,  0.106408201, 0.0209230036
   5170,  0.114608027, 0.0230014753
   5171,  0.122807853, 0.0250799488
   5172,  0.131007686, 0.0271584205
   5173,  0.139207512, 0.0292368922
   5174,  0.147407338, 0.0313153639
   5175,  0.155607179, 0.0333938338
   5176,  0.163807005, 0.0354723074
   5177,  0.172006831, 0.0375507809
   5178,  0.180206656, 0.0396292508
   5179,  0.188406482, 0.0417077243
   5180,  0.196606323, 0.0437861942
   5181,  0.204806149, 0.0458646677
   5182,  0.213005975, 0.0479431376
   5183,  0.221205801, 0.0500216112
   5184,  0.229405642,  0.052100081
   5185,  0.237605467, 0.0541785546
   5186,  0.245805293, 0.0562570281
   5187,  0.254005134,  0.058335498
   5188,  0.262204945, 0.0604139715
   5189,  0.270404786, 0.0624924414
   5190,  0.278604597, 0.0645709112
   5191,  0.286804438, 0.0666493848
   5192,  0.295004278, 0.0687278584
   5193,  0.303204089, 0.0708063319
   5194,   0.31140393,  0.072884798
   5195,  0.319603771, 0.0749632716
   5196,  0.327803582, 0.0770417452
   5197,  0.336003423, 0.0791202188
   5198,  0.344203234, 0.0811986923
   5199,  0.352403075, 0.0832771584
   5200,  0.360602915,  0.085355632
   5201,  0.368802726, 0.0874341056
   5202,  0.377002567, 0.0895125791
   5203,  0.385202378, 0.0915910453
   5204,  0.393402219, 0.0936695188
   5205,   0.40160206, 0.0957479924
   5206,  0.409801871,  0.097826466
   5207,  0.418001711, 0.0999049395
   5208,  0.426201522,  0.101983406
   5209,  0.434401363,  0.104061879
   5210,  0.442601204,  0.106140353
   5211,  0.450801015,  0.108218826
   5212,  0.459000856,  0.110297292
   5213,  0.467200696,  0.112375766
   5214,  0.475400507,   0.11445424
   5215,  0.483600348,  0.116532713
   5216,  0.491800159,  0.118611187
   5217,  0.105873033, 0.0238732472
   5218,  0.114084013, 0.0262494516
   5219,  0.122294992, 0.0286256559
   5220,  0.130505964, 0.0310018603
   5221,  0.138716951, 0.0333780646
   5222,  0.146927923, 0.0357542671
   5223,   0.15513891, 0.0381304696
   5224,  0.163349882, 0.0405066758
   5225,  0.171560869, 0.0428828783
   5226,  0.179771841, 0.0452590846
   5227,  0.187982813,  0.047635287
   5228,  0.196193799, 0.0500114895
   5229,  0.204404771, 0.0523876958
   5230,  0.212615758, 0.0547638983
   5231,   0.22082673, 0.0571401007
   5232,  0.229037717,  0.059516307
   5233,  0.237248689, 0.0618925095
   5234,  0.245459661, 0.0642687157
   5235,  0.253670633, 0.0666449144
   5236,   0.26188162, 0.0690211207
   5237,  0.270092607, 0.0713973269
   5238,  0.278303593, 0.0737735331
   5239,   0.28651455, 0.0761497319
   5240,  0.294725537, 0.0785259381
   5241,  0.302936524, 0.0809021443
   5242,  0.311147481, 0.0832783431
   5243,  0.319358468, 0.0856545493
   5244,  0.327569455, 0.0880307555
   5245,  0.335780442, 0.0904069543
   5246,  0.343991399, 0.0927831605
   5247,  0.352202386, 0.0951593667
   5248,  0.360413373, 0.0975355655
   5249,  0.368624359, 0.0999117717
   5250,  0.376835316,  0.102287978
   5251,  0.385046303,  0.104664177
   5252,   0.39325729,  0.107040383
   5253,  0.401468247,  0.109416589
   5254,  0.409679234,  0.111792795
   5255,  0.417890221,  0.114168994
   5256,  0.426101208,    0.1165452
   5257,  0.434312165,  0.118921407
   5258,  0.442523152,  0.121297605
   5259,  0.450734138,  0.123673812
   5260,  0.458945096,   0.12605001
   5261,  0.467156082,  0.128426224
   5262,  0.475367069,  0.130802423
   5263,  0.483578056,  0.133178622
   5264,  0.491789013,  0.135554835
   5265,  0.105267704, 0.0268080477
   5266,  0.113491297,  0.029482305
   5267,  0.121714883, 0.0321565606
   5268,  0.129938468, 0.0348308198
   5269,  0.138162062, 0.0375050791
   5270,  0.146385655, 0.0401793346
   5271,  0.154609248, 0.0428535938
   5272,  0.162832826, 0.0455278493
   5273,   0.17105642, 0.0482021086
   5274,  0.179280013, 0.0508763641
   5275,  0.187503606, 0.0535506234
   5276,  0.195727184, 0.0562248826
   5277,  0.203950778, 0.0588991381
   5278,  0.212174371, 0.0615733974
   5279,  0.220397964, 0.0642476529
   5280,  0.228621542, 0.0669219121
   5281,  0.236845136, 0.0695961714
   5282,  0.245068729, 0.0722704232
   5283,  0.253292322, 0.0749446824
   5284,  0.261515915, 0.0776189417
   5285,  0.269739509, 0.0802932009
   5286,  0.277963072, 0.0829674602
   5287,  0.286186665,  0.085641712
   5288,  0.294410259, 0.0883159712
   5289,  0.302633852, 0.0909902304
   5290,  0.310857445, 0.0936644897
   5291,  0.319081038, 0.0963387489
   5292,  0.327304631, 0.0990130007
   5293,  0.335528225,   0.10168726
   5294,  0.343751788,  0.104361519
   5295,  0.351975381,  0.107035778
   5296,  0.360198975,   0.10971003
   5297,  0.368422568,   0.11238429
   5298,  0.376646161,  0.115058549
   5299,  0.384869754,  0.117732808
   5300,  0.393093348,  0.120407067
   5301,  0.401316941,  0.123081319
   5302,  0.409540504,  0.125755578
   5303,  0.417764097,   0.12842983
   5304,  0.425987691,  0.131104097
   5305,  0.434211284,  0.133778349
   5306,  0.442434877,  0.136452615
   5307,   0.45065847,  0.139126867
   5308,  0.458882064,  0.141801119
   5309,  0.467105657,  0.144475386
   5310,   0.47532922,  0.147149637
   5311,  0.483552814,  0.149823904
   5312,  0.491776407,  0.152498156
   5313,  0.104592651, 0.0297255069
   5314,  0.112830304, 0.0326981805
   5315,  0.121067956, 0.0356708504
   5316,  0.129305616, 0.0386435241
   5317,  0.137543261, 0.0416161977
   5318,  0.145780921, 0.0445888713
   5319,  0.154018566, 0.0475615412
   5320,  0.162256226, 0.0505342148
   5321,  0.170493871, 0.0535068884
   5322,  0.178731531, 0.0564795621
   5323,  0.186969176,  0.059452232
   5324,  0.195206836, 0.0624249056
   5325,  0.203444496, 0.0653975755
   5326,  0.211682141, 0.0683702528
   5327,  0.219919801, 0.0713429227
   5328,  0.228157446, 0.0743155926
   5329,  0.236395106,   0.07728827
   5330,  0.244632751, 0.0802609399
   5331,  0.252870411, 0.0832336172
   5332,  0.261108071, 0.0862062871
   5333,  0.269345701,  0.089178957
   5334,  0.277583361, 0.0921516344
   5335,  0.285821021, 0.0951243043
   5336,  0.294058681, 0.0980969742
   5337,   0.30229634,  0.101069652
   5338,  0.310533971,  0.104042321
   5339,  0.318771631,  0.107014999
   5340,   0.32700929,  0.109987669
   5341,   0.33524695,  0.112960339
   5342,  0.343484581,  0.115933016
   5343,   0.35172224,  0.118905686
   5344,    0.3599599,  0.121878356
   5345,   0.36819756,  0.124851033
   5346,   0.37643519,   0.12782371
   5347,   0.38467285,  0.130796373
   5348,   0.39291051,   0.13376905
   5349,   0.40114817,  0.136741728
   5350,   0.40938583,   0.13971439
   5351,   0.41762346,  0.142687067
   5352,   0.42586112,  0.145659745
   5353,   0.43409878,  0.148632407
   5354,   0.44233644,  0.151605085
   5355,   0.45057407,  0.154577762
   5356,   0.45881173,  0.157550424
   5357,   0.46704939,  0.160523102
   5358,   0.47528705,  0.163495779
   5359,   0.48352468,  0.166468441
   5360,   0.49176234,  0.169441119
   5361,  0.103848375, 0.0326237455
   5362,  0.112101533, 0.0358952321
   5363,   0.12035469, 0.0391667224
   5364,  0.128607854, 0.0424382091
   5365,  0.136861011, 0.0457096994
   5366,  0.145114169,  0.048981186
   5367,  0.153367326, 0.0522526726
   5368,  0.161620483, 0.0555241629
   5369,   0.16987364, 0.0587956496
   5370,  0.178126797, 0.0620671362
   5371,  0.186379969, 0.0653386265
   5372,  0.194633126, 0.0686101168
   5373,  0.202886283, 0.0718815997
   5374,  0.211139441, 0.0751530901
   5375,  0.219392598, 0.0784245804
   5376,  0.227645755, 0.0816960633
   5377,  0.235898912, 0.0849675536
   5378,  0.244152069,  0.088239044
   5379,  0.252405226, 0.0915105268
   5380,  0.260658383, 0.0947820172
   5381,  0.268911541, 0.0980535075
   5382,  0.277164698,  0.101324998
   5383,  0.285417855,  0.104596481
   5384,  0.293671042,  0.107867971
   5385,  0.301924199,  0.111139461
   5386,  0.310177356,  0.114410944
   5387,  0.318430513,  0.117682435
   5388,   0.32668367,  0.120953925
   5389,  0.334936827,  0.124225408
   5390,  0.343189985,  0.127496898
   5391,  0.351443142,  0.130768389
   5392,  0.359696299,  0.134039879
   5393,  0.367949456,  0.137311369
   5394,  0.376202613,  0.140582845
   5395,   0.38445577,  0.143854335
   5396,  0.392708927,  0.147125825
   5397,  0.400962085,  0.150397316
   5398,  0.409215242,  0.153668806
   5399,  0.417468399,  0.156940296
   5400,  0.425721556,  0.160211787
   5401,  0.433974743,  0.163483262
   5402,    0.4422279,  0.166754752
   5403,  0.450481057,  0.170026243
   5404,  0.458734214,  0.173297733
   5405,  0.466987371,  0.176569223
   5406,  0.475240529,  0.179840714
   5407,  0.483493686,  0.183112189
   5408,  0.491746843,   0.18638368
   5409,  0.103035413, 0.0355008952
   5410,  0.111305505, 0.0390716381
   5411,  0.119575605,  0.042642381
   5412,  0.127845705, 0.0462131239
   5413,  0.136115789, 0.0497838669
   5414,  0.144385889, 0.0533546098
   5415,  0.152655989, 0.0569253527
   5416,  0.160926089, 0.0604960956
   5417,  0.169196174, 0.0640668422
   5418,  0.177466273, 0.0676375777
   5419,  0.185736373, 0.0712083206
   5420,  0.194006458, 0.0747790635
   5421,  0.202276558, 0.0783498064
   5422,  0.210546657, 0.0819205493
   5423,  0.218816757, 0.0854912922
   5424,  0.227086842, 0.0890620351
   5425,  0.235356942,  0.092632778
   5426,  0.243627042, 0.0962035209
   5427,  0.251897126, 0.0997742638
   5428,  0.260167241,  0.103345007
   5429,  0.268437326,   0.10691575
   5430,  0.276707411,  0.110486493
   5431,  0.284977525,  0.114057235
   5432,   0.29324761,  0.117627978
   5433,  0.301517695,  0.121198721
   5434,   0.30978781,  0.124769464
   5435,  0.318057895,  0.128340214
   5436,   0.32632798,   0.13191095
   5437,  0.334598094,    0.1354817
   5438,  0.342868179,  0.139052436
   5439,  0.351138294,  0.142623186
   5440,  0.359408379,  0.146193922
   5441,  0.367678463,  0.149764672
   5442,  0.375948578,  0.153335407
   5443,  0.384218663,  0.156906158
   5444,  0.392488748,  0.160476893
   5445,  0.400758862,  0.164047644
   5446,  0.409028947,  0.167618379
   5447,  0.417299032,  0.171189129
   5448,  0.425569147,  0.174759865
   5449,  0.433839232,  0.178330615
   5450,  0.442109317,  0.181901351
   5451,  0.450379431,  0.185472101
   5452,  0.458649516,  0.189042836
   5453,  0.466919631,  0.192613587
   5454,  0.475189716,  0.196184322
   5455,    0.4834598,  0.199755073
   5456,  0.491729915,  0.203325808
   5457,  0.102154367, 0.0383551046
   5458,  0.110442817, 0.0422255807
   5459,  0.118731268, 0.0460960567
   5460,  0.127019718, 0.0499665327
   5461,  0.135308176, 0.0538370088
   5462,  0.143596619, 0.0577074848
   5463,  0.151885077, 0.0615779571
   5464,   0.16017352, 0.0654484332
   5465,  0.168461978, 0.0693189129
   5466,  0.176750422, 0.0731893852
   5467,   0.18503888, 0.0770598575
   5468,  0.193327323, 0.0809303373
   5469,  0.201615781, 0.0848008096
   5470,  0.209904224, 0.0886712894
   5471,  0.218192682, 0.0925417617
   5472,  0.226481125, 0.0964122415
   5473,  0.234769583,  0.100282714
   5474,  0.243058026,  0.104153186
   5475,  0.251346469,  0.108023666
   5476,  0.259634942,  0.111894138
   5477,  0.267923385,  0.115764618
   5478,  0.276211828,   0.11963509
   5479,  0.284500271,   0.12350557
   5480,  0.292788744,   0.12737605
   5481,  0.301077187,  0.131246522
   5482,   0.30936563,  0.135116994
   5483,  0.317654073,  0.138987467
   5484,  0.325942546,  0.142857939
   5485,  0.334230989,  0.146728426
   5486,  0.342519432,  0.150598899
   5487,  0.350807875,  0.154469371
   5488,  0.359096348,  0.158339843
   5489,  0.367384791,  0.162210315
   5490,  0.375673234,  0.166080803
   5491,  0.383961678,  0.169951275
   5492,   0.39225015,  0.173821747
   5493,  0.400538594,   0.17769222
   5494,  0.408827037,  0.181562707
   5495,   0.41711548,  0.185433179
   5496,  0.425403953,  0.189303651
   5497,  0.433692396,  0.193174124
   5498,  0.441980839,  0.197044596
   5499,  0.450269282,  0.200915083
   5500,  0.458557755,  0.204785556
   5501,  0.466846198,  0.208656028
   5502,  0.475134641,    0.2125265
   5503,  0.483423084,  0.216396973
   5504,  0.491711557,   0.22026746
   5505,  0.101205885, 0.0411845408
   5506,  0.109514095, 0.0453552641
   5507,  0.117822304, 0.0495259874
   5508,  0.126130521, 0.0536967143
   5509,  0.134438723, 0.0578674376
   5510,   0.14274694, 0.0620381609
   5511,  0.151055142, 0.0662088841
   5512,  0.159363359, 0.0703796074
   5513,  0.167671576, 0.0745503381
   5514,  0.175979778, 0.0787210613
   5515,  0.184287995, 0.0828917846
   5516,  0.192596197, 0.0870625079
   5517,  0.200904414, 0.0912332311
   5518,  0.209212616, 0.0954039544
   5519,  0.217520833, 0.0995746776
   5520,   0.22582905,  0.103745408
   5521,  0.234137252,  0.107916132
   5522,  0.242445469,  0.112086855
   5523,  0.250753671,  0.116257578
   5524,  0.259061873,  0.120428301
   5525,  0.267370105,  0.124599025
   5526,  0.275678307,  0.128769755
   5527,  0.283986509,  0.132940471
   5528,  0.292294741,  0.137111202
   5529,  0.300602943,  0.141281918
   5530,  0.308911145,  0.145452648
   5531,  0.317219377,  0.149623379
   5532,  0.325527579,  0.153794095
   5533,  0.333835781,  0.157964826
   5534,  0.342143983,  0.162135541
   5535,  0.350452214,  0.166306272
   5536,  0.358760417,  0.170477003
   5537,  0.367068619,  0.174647719
   5538,   0.37537685,  0.178818449
   5539,  0.383685052,  0.182989165
   5540,  0.391993254,  0.187159896
   5541,  0.400301456,  0.191330612
   5542,  0.408609688,  0.195501342
   5543,   0.41691789,  0.199672073
   5544,  0.425226092,  0.203842789
   5545,  0.433534324,   0.20801352
   5546,  0.441842526,  0.212184235
   5547,  0.450150728,  0.216354966
   5548,   0.45845896,  0.220525682
   5549,  0.466767162,  0.224696413
   5550,  0.475075364,  0.228867143
   5551,  0.483383566,  0.233037859
   5552,  0.491691798,   0.23720859
   5553,  0.100190654, 0.0439873822
   5554,  0.108520016, 0.0484589078
   5555,  0.116849378,  0.052930437
   5556,  0.125178739, 0.0574019626
   5557,  0.133508101, 0.0618734919
   5558,  0.141837463, 0.0663450211
   5559,  0.150166824, 0.0708165467
   5560,  0.158496186, 0.0752880722
   5561,  0.166825548, 0.0797595978
   5562,  0.175154909, 0.0842311233
   5563,  0.183484271, 0.0887026563
   5564,  0.191813633, 0.0931741819
   5565,  0.200142995, 0.0976457074
   5566,  0.208472356,  0.102117233
   5567,  0.216801718,  0.106588766
   5568,   0.22513108,  0.111060292
   5569,  0.233460441,  0.115531817
   5570,  0.241789803,  0.120003343
   5571,   0.25011915,  0.124474868
   5572,  0.258448511,  0.128946394
   5573,  0.266777873,  0.133417919
   5574,  0.275107235,   0.13788946
   5575,  0.283436596,  0.142360985
   5576,  0.291765958,  0.146832511
   5577,   0.30009532,  0.151304036
   5578,  0.308424681,  0.155775562
   5579,  0.316754043,  0.160247087
   5580,  0.325083405,  0.164718613
   5581,  0.333412766,  0.169190139
   5582,  0.341742128,  0.173661679
   5583,   0.35007149,  0.178133205
   5584,  0.358400851,   0.18260473
   5585,  0.366730213,  0.187076256
   5586,  0.375059575,  0.191547781
   5587,  0.383388937,  0.196019307
   5588,  0.391718298,  0.200490832
   5589,   0.40004766,  0.204962358
   5590,  0.408377022,  0.209433883
   5591,  0.416706383,  0.213905424
   5592,  0.425035745,  0.218376949
   5593,  0.433365107,  0.222848475
   5594,  0.441694468,  0.227320001
   5595,   0.45002383,  0.231791526
   5596,  0.458353192,  0.236263052
   5597,  0.466682553,  0.240734577
   5598,  0.475011915,  0.245206103
   5599,  0.483341277,  0.249677628
   5600,  0.491670638,  0.254149169
   5601, 0.0991094261, 0.0467618331
   5602,  0.107461318, 0.0515347533
   5603,  0.115813203, 0.0563076735
   5604,  0.124165088, 0.0610805973
   5605,   0.13251698, 0.0658535212
   5606,  0.140868858, 0.0706264377
   5607,   0.14922075, 0.0753993616
   5608,  0.157572642, 0.0801722854
   5609,  0.165924519, 0.0849452019
   5610,  0.174276412, 0.0897181258
   5611,  0.182628304, 0.0944910496
   5612,  0.190980181, 0.0992639661
   5613,  0.199332073,   0.10403689
   5614,  0.207683966,  0.108809814
   5615,  0.216035843,  0.113582738
   5616,  0.224387735,  0.118355654
   5617,  0.232739612,  0.123128578
   5618,  0.241091505,  0.127901495
   5619,  0.249443397,  0.132674426
   5620,  0.257795274,  0.137447342
   5621,  0.266147166,  0.142220259
   5622,  0.274499059,   0.14699319
   5623,  0.282850951,  0.151766106
   5624,  0.291202813,  0.156539023
   5625,  0.299554706,  0.161311954
   5626,  0.307906598,  0.166084871
   5627,   0.31625849,  0.170857787
   5628,  0.324610382,  0.175630718
   5629,  0.332962275,  0.180403635
   5630,  0.341314137,  0.185176551
   5631,  0.349666029,  0.189949483
   5632,  0.358017921,  0.194722399
   5633,  0.366369814,   0.19949533
   5634,  0.374721706,  0.204268247
   5635,  0.383073598,  0.209041163
   5636,  0.391425461,  0.213814095
   5637,  0.399777353,  0.218587011
   5638,  0.408129245,  0.223359928
   5639,  0.416481137,  0.228132859
   5640,   0.42483303,  0.232905775
   5641,  0.433184892,  0.237678692
   5642,  0.441536784,  0.242451623
   5643,  0.449888676,   0.24722454
   5644,  0.458240569,  0.251997471
   5645,  0.466592461,  0.256770372
   5646,  0.474944353,  0.261543304
   5647,  0.483296216,  0.266316235
   5648,  0.491648108,  0.271089137
   5649, 0.0979629979, 0.0495061167
   5650,  0.106338769,  0.054581061
   5651,  0.114714541, 0.0596560054
   5652,  0.123090312, 0.0647309497
   5653,  0.131466076, 0.0698058903
   5654,  0.139841855, 0.0748808384
   5655,  0.148217618,  0.079955779
   5656,  0.156593397, 0.0850307271
   5657,  0.164969161, 0.0901056677
   5658,   0.17334494, 0.0951806158
   5659,  0.181720704,  0.100255556
   5660,  0.190096483,  0.105330504
   5661,  0.198472247,  0.110405445
   5662,  0.206848025,  0.115480393
   5663,  0.215223789,  0.120555334
   5664,  0.223599553,  0.125630274
   5665,  0.231975332,  0.130705222
   5666,  0.240351096,  0.135780171
   5667,  0.248726875,  0.140855119
   5668,  0.257102638,  0.145930067
   5669,  0.265478402,     0.151005
   5670,  0.273854196,  0.156079948
   5671,   0.28222996,  0.161154896
   5672,  0.290605724,  0.166229844
   5673,  0.298981488,  0.171304777
   5674,  0.307357281,  0.176379725
   5675,  0.315733045,  0.181454673
   5676,  0.324108809,  0.186529621
   5677,  0.332484573,  0.191604555
   5678,  0.340860367,  0.196679503
   5679,  0.349236131,  0.201754451
   5680,  0.357611895,  0.206829399
   5681,  0.365987659,  0.211904332
   5682,  0.374363422,   0.21697928
   5683,  0.382739216,  0.222054228
   5684,   0.39111498,  0.227129176
   5685,  0.399490744,  0.232204109
   5686,  0.407866508,  0.237279058
   5687,  0.416242301,  0.242354006
   5688,  0.424618065,  0.247428954
   5689,  0.432993829,  0.252503902
   5690,  0.441369593,   0.25757885
   5691,  0.449745387,  0.262653768
   5692,  0.458121151,  0.267728716
   5693,  0.466496915,  0.272803664
   5694,  0.474872679,  0.277878612
   5695,  0.483248472,   0.28295356
   5696,  0.491624236,  0.288028508
   5697, 0.0967521966, 0.0522184782
   5698,  0.105153196, 0.0575961098
   5699,  0.113554195, 0.0629737377
   5700,  0.121955186, 0.0683513731
   5701,  0.130356178, 0.0737290084
   5702,  0.138757184, 0.0791066363
   5703,  0.147158176, 0.0844842717
   5704,  0.155559167, 0.0898618996
   5705,  0.163960174,  0.095239535
   5706,  0.172361165,   0.10061717
   5707,  0.180762157,  0.105994798
   5708,  0.189163148,  0.111372434
   5709,  0.197564155,  0.116750062
   5710,  0.205965146,  0.122127697
   5711,  0.214366138,  0.127505332
   5712,  0.222767144,  0.132882968
   5713,  0.231168136,  0.138260588
   5714,  0.239569128,  0.143638223
   5715,  0.247970119,  0.149015859
   5716,  0.256371111,  0.154393494
   5717,  0.264772117,  0.159771129
   5718,  0.273173124,   0.16514875
   5719,    0.2815741,  0.170526385
   5720,  0.289975107,  0.175904021
   5721,  0.298376113,  0.181281656
   5722,   0.30677709,  0.186659291
   5723,  0.315178096,  0.192036912
   5724,  0.323579073,  0.197414547
   5725,  0.331980079,  0.202792183
   5726,  0.340381086,  0.208169818
   5727,  0.348782063,  0.213547453
   5728,  0.357183069,  0.218925074
   5729,  0.365584075,  0.224302709
   5730,  0.373985052,  0.229680344
   5731,  0.382386059,   0.23505798
   5732,  0.390787065,    0.2404356
   5733,  0.399188042,  0.245813236
   5734,  0.407589048,  0.251190871
   5735,  0.415990055,  0.256568491
   5736,  0.424391031,  0.261946142
   5737,  0.432792038,  0.267323762
   5738,  0.441193014,  0.272701412
   5739,  0.449594021,  0.278079033
   5740,  0.457995027,  0.283456653
   5741,  0.466396004,  0.288834304
   5742,   0.47479701,  0.294211924
   5743,  0.483198017,  0.299589574
   5744,  0.491598994,  0.304967195
   5745, 0.0954779238, 0.0548971854
   5746,  0.103905469, 0.0605782047
   5747,  0.112333015, 0.0662592277
   5748,   0.12076056, 0.0719402507
   5749,  0.129188105, 0.0776212662
   5750,  0.137615636, 0.0833022892
   5751,  0.146043181, 0.0889833122
   5752,  0.154470727, 0.0946643353
   5753,  0.162898272,  0.100345358
   5754,  0.171325818,  0.106026374
   5755,  0.179753363,  0.111707397
   5756,  0.188180909,   0.11738842
   5757,  0.196608439,  0.123069443
   5758,  0.205035985,  0.128750458
   5759,   0.21346353,  0.134431481
   5760,  0.221891075,  0.140112504
   5761,  0.230318621,  0.145793527
   5762,  0.238746166,   0.15147455
   5763,  0.247173712,  0.157155573
   5764,  0.255601257,  0.162836596
   5765,  0.264028788,  0.168517604
   5766,  0.272456348,  0.174198627
   5767,  0.280883878,   0.17987965
   5768,  0.289311409,  0.185560673
   5769,  0.297738969,  0.191241696
   5770,    0.3061665,  0.196922719
   5771,   0.31459406,  0.202603742
   5772,  0.323021591,  0.208284765
   5773,  0.331449151,  0.213965774
   5774,  0.339876682,  0.219646797
   5775,  0.348304212,   0.22532782
   5776,  0.356731772,  0.231008843
   5777,  0.365159303,  0.236689866
   5778,  0.373586863,  0.242370889
   5779,  0.382014394,  0.248051912
   5780,  0.390441924,   0.25373292
   5781,  0.398869485,  0.259413958
   5782,  0.407297015,  0.265094966
   5783,  0.415724576,  0.270776004
   5784,  0.424152106,  0.276457012
   5785,  0.432579666,   0.28213805
   5786,  0.441007197,  0.287819058
   5787,  0.449434727,  0.293500066
   5788,  0.457862288,  0.299181104
   5789,  0.466289818,  0.304862112
   5790,  0.474717379,   0.31054315
   5791,  0.483144909,  0.316224158
   5792,  0.491572469,  0.321905196
   5793, 0.0941411108, 0.0575405322
   5794,  0.102596506, 0.0635256767
   5795,  0.111051895,  0.069510825
   5796,   0.11950729, 0.0754959732
   5797,  0.127962679, 0.0814811215
   5798,  0.136418074, 0.0874662697
   5799,   0.14487347,  0.093451418
   5800,  0.153328866, 0.0994365588
   5801,  0.161784261,  0.105421707
   5802,  0.170239657,  0.111406855
   5803,  0.178695053,  0.117392004
   5804,  0.187150434,  0.123377152
   5805,  0.195605829,    0.1293623
   5806,  0.204061225,  0.135347441
   5807,  0.212516621,  0.141332597
   5808,  0.220972016,  0.147317737
   5809,  0.229427412,  0.153302878
   5810,  0.237882808,  0.159288034
   5811,  0.246338189,  0.165273175
   5812,  0.254793584,   0.17125833
   5813,   0.26324898,  0.177243471
   5814,  0.271704376,  0.183228612
   5815,  0.280159771,  0.189213768
   5816,  0.288615167,  0.195198908
   5817,  0.297070563,  0.201184064
   5818,  0.305525959,  0.207169205
   5819,  0.313981354,  0.213154361
   5820,   0.32243675,  0.219139501
   5821,  0.330892116,  0.225124642
   5822,  0.339347512,  0.231109798
   5823,  0.347802907,  0.237094939
   5824,  0.356258303,  0.243080094
   5825,  0.364713699,  0.249065235
   5826,  0.373169094,  0.255050391
   5827,   0.38162449,  0.261035532
   5828,  0.390079886,  0.267020673
   5829,  0.398535281,  0.273005813
   5830,  0.406990677,  0.278990984
   5831,  0.415446073,  0.284976125
   5832,  0.423901469,  0.290961266
   5833,  0.432356864,  0.296946406
   5834,   0.44081226,  0.302931547
   5835,  0.449267626,  0.308916718
   5836,  0.457723022,  0.314901859
   5837,  0.466178417,  0.320886999
   5838,  0.474633813,   0.32687214
   5839,  0.483089209,  0.332857281
   5840,  0.491544604,  0.338842452
   5841, 0.0927427337, 0.0601468422
   5842,  0.101227261, 0.0664368868
   5843,  0.109711789, 0.0727269277
   5844,  0.118196316, 0.0790169761
   5845,  0.126680836,  0.085307017
   5846,  0.135165364, 0.0915970653
   5847,  0.143649891, 0.0978871062
   5848,  0.152134418,  0.104177147
   5849,  0.160618946,  0.110467196
   5850,  0.169103473,  0.116757236
   5851,  0.177588001,  0.123047285
   5852,  0.186072528,  0.129337326
   5853,  0.194557056,  0.135627374
   5854,  0.203041583,  0.141917422
   5855,  0.211526096,  0.148207456
   5856,  0.220010623,  0.154497504
   5857,  0.228495151,  0.160787553
   5858,  0.236979678,  0.167077586
   5859,  0.245464206,  0.173367634
   5860,  0.253948748,  0.179657683
   5861,  0.262433261,  0.185947731
   5862,  0.270917773,  0.192237765
   5863,  0.279402316,  0.198527813
   5864,  0.287886828,  0.204817861
   5865,  0.296371371,   0.21110791
   5866,  0.304855883,  0.217397943
   5867,  0.313340425,  0.223687991
   5868,  0.321824938,   0.22997804
   5869,   0.33030948,  0.236268073
   5870,  0.338793993,  0.242558122
   5871,  0.347278535,   0.24884817
   5872,  0.355763048,  0.255138218
   5873,   0.36424759,  0.261428267
   5874,  0.372732103,  0.267718315
   5875,  0.381216645,  0.274008334
   5876,  0.389701158,  0.280298382
   5877,   0.39818567,   0.28658843
   5878,  0.406670213,  0.292878479
   5879,  0.415154725,  0.299168527
   5880,  0.423639268,  0.305458575
   5881,   0.43212378,  0.311748624
   5882,  0.440608323,  0.318038642
   5883,  0.449092835,  0.324328691
   5884,  0.457577378,  0.330618739
   5885,   0.46606189,  0.336908787
   5886,  0.474546432,  0.343198836
   5887,  0.483030945,  0.349488884
   5888,  0.491515487,  0.355778933
   5889, 0.0912838206, 0.0627144575
   5890,  0.099798739, 0.0693102032
   5891,  0.108313657, 0.0759059489
   5892,  0.116828583, 0.0825016946
   5893,  0.125343502, 0.0890974477
   5894,  0.133858427, 0.0956931934
   5895,  0.142373338,  0.102288939
   5896,  0.150888264,  0.108884685
   5897,   0.15940319,  0.115480438
   5898,  0.167918101,  0.122076184
   5899,  0.176433027,  0.128671929
   5900,  0.184947938,  0.135267675
   5901,  0.193462864,  0.141863421
   5902,  0.201977789,  0.148459181
   5903,    0.2104927,  0.155054927
   5904,  0.219007626,  0.161650673
   5905,  0.227522552,  0.168246418
   5906,  0.236037463,  0.174842164
   5907,  0.244552389,   0.18143791
   5908,  0.253067315,  0.188033655
   5909,  0.261582226,  0.194629416
   5910,  0.270097136,  0.201225162
   5911,  0.278612077,  0.207820907
   5912,  0.287126988,  0.214416653
   5913,  0.295641899,  0.221012399
   5914,   0.30415684,  0.227608144
   5915,  0.312671751,   0.23420389
   5916,  0.321186662,  0.240799636
   5917,  0.329701602,  0.247395396
   5918,  0.338216513,  0.253991127
   5919,  0.346731424,  0.260586888
   5920,  0.355246365,  0.267182648
   5921,  0.363761276,  0.273778379
   5922,  0.372276187,   0.28037414
   5923,  0.380791128,   0.28696987
   5924,  0.389306039,  0.293565631
   5925,   0.39782095,  0.300161362
   5926,   0.40633589,  0.306757122
   5927,  0.414850801,  0.313352853
   5928,  0.423365712,  0.319948614
   5929,  0.431880623,  0.326544374
   5930,  0.440395564,  0.333140105
   5931,  0.448910475,  0.339735866
   5932,  0.457425386,  0.346331596
   5933,  0.465940326,  0.352927357
   5934,  0.474455237,  0.359523088
   5935,  0.482970148,  0.366118848
   5936,  0.491485089,  0.372714609
   5937, 0.0897654369, 0.0652417466
   5938, 0.0983119905,  0.072144039
   5939,  0.106858544, 0.0790463313
   5940,  0.115405098, 0.0859486237
   5941,  0.123951651, 0.0928509161
   5942,  0.132498205, 0.0997532085
   5943,  0.141044766,  0.106655493
   5944,  0.149591312,  0.113557786
   5945,  0.158137873,  0.120460078
   5946,  0.166684419,   0.12736237
   5947,   0.17523098,  0.134264663
   5948,  0.183777526,  0.141166955
   5949,  0.192324087,  0.148069248
   5950,  0.200870633,   0.15497154
   5951,  0.209417194,  0.161873832
   5952,   0.21796374,   0.16877611
   5953,  0.226510286,  0.175678402
   5954,  0.235056847,  0.182580695
   5955,  0.243603393,  0.189482987
   5956,   0.25214994,  0.196385279
   5957,  0.260696501,  0.203287572
   5958,  0.269243062,  0.210189864
   5959,  0.277789623,  0.217092156
   5960,  0.286336154,  0.223994449
   5961,  0.294882715,  0.230896741
   5962,  0.303429276,  0.237799034
   5963,  0.311975837,  0.244701326
   5964,  0.320522368,  0.251603603
   5965,  0.329068929,  0.258505911
   5966,   0.33761549,  0.265408188
   5967,  0.346162051,  0.272310495
   5968,  0.354708582,  0.279212773
   5969,  0.363255143,   0.28611508
   5970,  0.371801704,  0.293017358
   5971,  0.380348265,  0.299919635
   5972,  0.388894796,  0.306821942
   5973,  0.397441357,   0.31372422
   5974,  0.405987918,  0.320626527
   5975,  0.414534479,  0.327528805
   5976,  0.423081011,  0.334431112
   5977,  0.431627572,  0.341333389
   5978,  0.440174133,  0.348235697
   5979,  0.448720694,  0.355137974
   5980,  0.457267225,  0.362040281
   5981,  0.465813786,  0.368942559
   5982,  0.474360347,  0.375844836
   5983,  0.482906908,  0.382747144
   5984,  0.491453439,  0.389649421
   5985, 0.0881887078, 0.0677271262
   5986,  0.096768111,  0.074936837
   5987,  0.105347514, 0.0821465477
   5988,  0.113926917, 0.0893562511
   5989,  0.122506313, 0.0965659618
   5990,  0.131085724,  0.103775665
   5991,  0.139665127,  0.110985376
   5992,  0.148244515,  0.118195087
   5993,  0.156823918,   0.12540479
   5994,  0.165403321,  0.132614493
   5995,  0.173982725,  0.139824212
   5996,  0.182562128,  0.147033915
   5997,  0.191141531,  0.154243618
   5998,  0.199720934,  0.161453336
   5999,  0.208300337,   0.16866304
   6000,   0.21687974,  0.175872743
   6001,  0.225459144,  0.183082461
   6002,  0.234038547,  0.190292165
   6003,   0.24261795,  0.197501868
   6004,  0.251197338,  0.204711571
   6005,  0.259776741,   0.21192129
   6006,  0.268356144,  0.219130993
   6007,  0.276935548,  0.226340696
   6008,  0.285514951,  0.233550414
   6009,  0.294094354,  0.240760118
   6010,  0.302673757,  0.247969821
   6011,   0.31125316,  0.255179524
   6012,  0.319832563,  0.262389243
   6013,  0.328411967,  0.269598961
   6014,   0.33699137,  0.276808649
   6015,  0.345570773,  0.284018368
   6016,  0.354150176,  0.291228086
   6017,  0.362729579,  0.298437774
   6018,  0.371308982,  0.305647492
   6019,  0.379888386,  0.312857181
   6020,  0.388467789,  0.320066899
   6021,  0.397047192,  0.327276617
   6022,  0.405626565,  0.334486306
   6023,  0.414205968,  0.341696024
   6024,  0.422785372,  0.348905742
   6025,  0.431364775,  0.356115431
   6026,  0.439944178,  0.363325149
   6027,  0.448523581,  0.370534867
   6028,  0.457102984,  0.377744555
   6029,  0.465682387,  0.384954274
   6030,  0.474261791,  0.392163992
   6031,  0.482841194,   0.39937368
   6032,  0.491420597,  0.406583399
   6033, 0.0865547806, 0.0701690316
   6034, 0.0951682255, 0.0776870623
   6035,  0.103781663,  0.085205093
   6036,  0.112395108, 0.0927231237
   6037,  0.121008545,  0.100241154
   6038,  0.129621997,  0.107759185
   6039,  0.138235435,  0.115277208
   6040,  0.146848872,  0.122795239
   6041,   0.15546231,  0.130313277
   6042,  0.164075762,    0.1378313
   6043,  0.172689199,  0.145349339
   6044,  0.181302637,  0.152867362
   6045,  0.189916089,    0.1603854
   6046,  0.198529527,  0.167903423
   6047,  0.207142964,  0.175421447
   6048,  0.215756416,  0.182939485
   6049,  0.224369854,  0.190457508
   6050,  0.232983291,  0.197975546
   6051,  0.241596743,  0.205493569
   6052,  0.250210166,  0.213011608
   6053,  0.258823633,  0.220529631
   6054,  0.267437071,  0.228047669
   6055,  0.276050508,  0.235565692
   6056,  0.284663945,   0.24308373
   6057,  0.293277383,  0.250601768
   6058,   0.30189082,  0.258119792
   6059,  0.310504287,  0.265637815
   6060,  0.319117725,  0.273155838
   6061,  0.327731162,  0.280673891
   6062,    0.3363446,  0.288191915
   6063,  0.344958037,  0.295709938
   6064,  0.353571475,  0.303227961
   6065,  0.362184912,  0.310745984
   6066,  0.370798379,  0.318264037
   6067,  0.379411817,  0.325782061
   6068,  0.388025254,  0.333300084
   6069,  0.396638691,  0.340818107
   6070,  0.405252129,   0.34833616
   6071,  0.413865566,  0.355854183
   6072,  0.422479033,  0.363372207
   6073,  0.431092471,   0.37089023
   6074,  0.439705908,  0.378408283
   6075,  0.448319346,  0.385926306
   6076,  0.456932783,   0.39344433
   6077,  0.465546221,  0.400962353
   6078,  0.474159688,  0.408480406
   6079,  0.482773125,  0.415998429
   6080,  0.491386563,  0.423516452
   6081, 0.0848648548, 0.0725659207
   6082, 0.0935135037, 0.0803932101
   6083,  0.102162153, 0.0882204995
   6084,  0.110810801, 0.0960477889
   6085,   0.11945945,  0.103875078
   6086,  0.128108099,  0.111702368
   6087,  0.136756748,  0.119529665
   6088,  0.145405397,  0.127356946
   6089,  0.154054046,  0.135184243
   6090,  0.162702695,   0.14301154
   6091,  0.171351343,  0.150838822
   6092,  0.179999992,  0.158666119
   6093,  0.188648641,  0.166493401
   6094,   0.19729729,  0.174320698
   6095,  0.205945939,   0.18214798
   6096,  0.214594588,  0.189975277
   6097,  0.223243237,  0.197802573
   6098,  0.231891885,  0.205629855
   6099,  0.240540534,  0.213457152
   6100,  0.249189183,  0.221284434
   6101,  0.257837832,  0.229111731
   6102,  0.266486466,  0.236939013
   6103,   0.27513513,   0.24476631
   6104,  0.283783764,  0.252593607
   6105,  0.292432427,  0.260420889
   6106,  0.301081061,  0.268248171
   6107,  0.309729725,  0.276075482
   6108,  0.318378359,  0.283902764
   6109,  0.327027023,  0.291730046
   6110,  0.335675657,  0.299557328
   6111,  0.344324321,   0.30738464
   6112,  0.352972955,  0.315211922
   6113,  0.361621618,  0.323039204
   6114,  0.370270252,  0.330866516
   6115,  0.378918916,  0.338693798
   6116,   0.38756755,   0.34652108
   6117,  0.396216214,  0.354348361
   6118,  0.404864848,  0.362175673
   6119,  0.413513511,  0.370002955
   6120,  0.422162145,  0.377830237
   6121,  0.430810809,  0.385657549
   6122,  0.439459443,  0.393484831
   6123,  0.448108107,  0.401312113
   6124,  0.456756741,  0.409139425
   6125,  0.465405405,  0.416966707
   6126,  0.474054039,  0.424793988
   6127,  0.482702702,   0.43262127
   6128,  0.491351336,  0.440448582
   6129, 0.0831201673, 0.0749162957
   6130, 0.0918051675, 0.0830538124
   6131,   0.10049016, 0.0911913365
   6132,  0.109175161, 0.0993288532
   6133,  0.117860153,  0.107466377
   6134,  0.126545146,  0.115603894
   6135,  0.135230154,  0.123741411
   6136,  0.143915147,  0.131878927
   6137,  0.152600139,  0.140016451
   6138,  0.161285132,  0.148153976
   6139,   0.16997014,    0.1562915
   6140,  0.178655133,  0.164429009
   6141,  0.187340125,  0.172566533
   6142,  0.196025118,  0.180704057
   6143,  0.204710126,  0.188841566
   6144,  0.213395119,  0.196979091
   6145,  0.222080112,  0.205116615
   6146,  0.230765104,  0.213254124
   6147,  0.239450112,  0.221391648
   6148,  0.248135105,  0.229529172
   6149,  0.256820112,  0.237666696
   6150,  0.265505105,  0.245804206
   6151,  0.274190098,  0.253941715
   6152,  0.282875091,  0.262079239
   6153,  0.291560084,  0.270216763
   6154,  0.300245076,  0.278354287
   6155,  0.308930069,  0.286491811
   6156,  0.317615062,  0.294629335
   6157,  0.326300085,   0.30276686
   6158,  0.334985077,  0.310904354
   6159,   0.34367007,  0.319041878
   6160,  0.352355063,  0.327179402
   6161,  0.361040056,  0.335316926
   6162,  0.369725049,   0.34345445
   6163,  0.378410041,  0.351591974
   6164,  0.387095034,  0.359729499
   6165,  0.395780057,  0.367866993
   6166,   0.40446505,  0.376004517
   6167,  0.413150042,  0.384142041
   6168,  0.421835035,  0.392279565
   6169,  0.430520028,  0.400417089
   6170,  0.439205021,  0.408554614
   6171,  0.447890013,  0.416692138
   6172,  0.456575006,  0.424829632
   6173,  0.465260029,  0.432967156
   6174,  0.473945022,   0.44110468
   6175,  0.482630014,  0.449242204
   6176,  0.491315007,  0.457379729
   6177, 0.0813220069, 0.0772186965
   6178, 0.0900444686, 0.0856674463
   6179,  0.098766923, 0.0941161886
   6180,  0.107489385,  0.102564938
   6181,  0.116211839,  0.111013688
   6182,  0.124934301,  0.119462438
   6183,  0.133656755,   0.12791118
   6184,  0.142379209,   0.13635993
   6185,  0.151101679,   0.14480868
   6186,  0.159824133,   0.15325743
   6187,  0.168546587,  0.161706179
   6188,  0.177269042,  0.170154929
   6189,  0.185991511,  0.178603679
   6190,  0.194713965,  0.187052429
   6191,  0.203436419,  0.195501179
   6192,  0.212158874,  0.203949928
   6193,  0.220881343,  0.212398663
   6194,  0.229603797,  0.220847413
   6195,  0.238326252,  0.229296163
   6196,  0.247048706,  0.237744913
   6197,   0.25577116,  0.246193662
   6198,  0.264493614,  0.254642427
   6199,  0.273216099,  0.263091147
   6200,  0.281938553,  0.271539897
   6201,  0.290661007,  0.279988647
   6202,  0.299383461,  0.288437396
   6203,  0.308105916,  0.296886146
   6204,   0.31682837,  0.305334896
   6205,  0.325550824,  0.313783646
   6206,  0.334273309,  0.322232395
   6207,  0.342995763,  0.330681145
   6208,  0.351718217,  0.339129895
   6209,  0.360440671,  0.347578645
   6210,  0.369163126,  0.356027395
   6211,   0.37788558,  0.364476144
   6212,  0.386608034,  0.372924894
   6213,  0.395330489,  0.381373644
   6214,  0.404052973,  0.389822394
   6215,  0.412775427,  0.398271143
   6216,  0.421497881,  0.406719893
   6217,  0.430220336,  0.415168643
   6218,   0.43894279,  0.423617393
   6219,  0.447665244,  0.432066143
   6220,  0.456387699,  0.440514892
   6221,  0.465110153,  0.448963612
   6222,  0.473832637,  0.457412362
   6223,  0.482555091,  0.465861112
   6224,  0.491277546,  0.474309862
   6225, -0.108127341, -0.00300453929
   6226, -0.116291359, -0.00330114015
   6227,  -0.12445537, -0.00359774102
   6228, -0.132619381, -0.00389434188
   6229, -0.140783399, -0.00419094274
   6230, -0.148947418, -0.00448754337
   6231, -0.157111421, -0.00478414446
   6232,  -0.16527544, -0.00508074509
   6233, -0.173439458, -0.00537734618
   6234, -0.181603462, -0.00567394681
   6235,  -0.18976748, -0.00597054744
   6236, -0.197931498, -0.00626714854
   6237, -0.206095502, -0.00656374916
   6238,  -0.21425952, -0.00686035026
   6239, -0.222423539, -0.00715695089
   6240, -0.230587542, -0.00745355198
   6241,  -0.23875156, -0.00775015261
   6242, -0.246915579, -0.0080467537
   6243, -0.255079597, -0.00834335387
   6244, -0.263243616, -0.00863995496
   6245, -0.271407604, -0.00893655606
   6246, -0.279571623, -0.00923315715
   6247, -0.287735641, -0.00952975731
   6248, -0.295899659, -0.00982635841
   6249, -0.304063678, -0.0101229595
   6250, -0.312227696, -0.0104195606
   6251, -0.320391685, -0.0107161608
   6252, -0.328555703, -0.0110127619
   6253, -0.336719722, -0.0113093629
   6254,  -0.34488374, -0.0116059631
   6255, -0.353047758, -0.0119025642
   6256, -0.361211777, -0.0121991653
   6257, -0.369375795, -0.0124957664
   6258, -0.377539784, -0.0127923666
   6259, -0.385703802, -0.0130889677
   6260, -0.393867821, -0.0133855687
   6261, -0.402031839, -0.0136821689
   6262, -0.410195857,  -0.01397877
   6263, -0.418359876, -0.0142753711
   6264, -0.426523864, -0.0145719722
   6265, -0.434687883, -0.0148685724
   6266, -0.442851901, -0.0151651734
   6267, -0.451015919, -0.0154617745
   6268, -0.459179938, -0.0157583747
   6269, -0.467343956, -0.0160549767
   6270, -0.475507945, -0.0163515769
   6271, -0.483671963, -0.0166481771
   6272, -0.491835982, -0.0169447791
   6273, -0.108019598, -0.00600713305
   6274, -0.116185859, -0.00660037529
   6275,  -0.12435212, -0.00719361752
   6276, -0.132518381, -0.00778685976
   6277, -0.140684634, -0.00838010199
   6278, -0.148850888, -0.00897334423
   6279, -0.157017156, -0.00956658646
   6280,  -0.16518341, -0.0101598287
   6281, -0.173349664, -0.0107530709
   6282, -0.181515932, -0.0113463132
   6283, -0.189682186, -0.0119395554
   6284, -0.197848439, -0.0125327976
   6285, -0.206014693, -0.0131260399
   6286, -0.214180961, -0.0137192821
   6287, -0.222347215, -0.0143125234
   6288, -0.230513468, -0.0149057657
   6289, -0.238679737, -0.0154990079
   6290,  -0.24684599, -0.0160922501
   6291, -0.255012244, -0.0166854933
   6292, -0.263178498, -0.0172787346
   6293, -0.271344781, -0.0178719778
   6294, -0.279511034, -0.0184652191
   6295, -0.287677288, -0.0190584622
   6296, -0.295843542, -0.0196517035
   6297, -0.304009795, -0.0202449467
   6298, -0.312176049, -0.020838188
   6299, -0.320342302, -0.0214314293
   6300, -0.328508586, -0.0220246725
   6301, -0.336674839, -0.0226179138
   6302, -0.344841093, -0.0232111569
   6303, -0.353007346, -0.0238043983
   6304,   -0.3611736, -0.0243976414
   6305, -0.369339854, -0.0249908827
   6306, -0.377506137, -0.0255841259
   6307,  -0.38567239, -0.0261773672
   6308, -0.393838644, -0.0267706104
   6309, -0.402004898, -0.0273638517
   6310, -0.410171151, -0.0279570948
   6311, -0.418337405, -0.0285503361
   6312, -0.426503688, -0.0291435793
   6313, -0.434669942, -0.0297368206
   6314, -0.442836195, -0.0303300638
   6315, -0.451002449, -0.0309233051
   6316, -0.459168702, -0.0315165482
   6317, -0.467334956, -0.0321097896
   6318, -0.475501239, -0.0327030309
   6319, -0.483667493, -0.0332962759
   6320, -0.491833746, -0.0338895172
   6321, -0.107840113, -0.00900583714
   6322, -0.116010115, -0.00989580154
   6323, -0.124180108, -0.0107857659
   6324, -0.132350102, -0.0116757313
   6325, -0.140520111, -0.0125656957
   6326, -0.148690104, -0.0134556601
   6327, -0.156860098, -0.0143456245
   6328, -0.165030107, -0.0152355889
   6329, -0.173200101, -0.0161255542
   6330, -0.181370094, -0.0170155186
   6331, -0.189540088, -0.017905483
   6332, -0.197710097, -0.0187954474
   6333, -0.205880091, -0.0196854118
   6334, -0.214050084, -0.0205753762
   6335, -0.222220078, -0.0214653406
   6336, -0.230390087, -0.0223553069
   6337, -0.238560081, -0.0232452713
   6338, -0.246730074, -0.0241352357
   6339, -0.254900068, -0.0250252001
   6340, -0.263070077, -0.0259151645
   6341, -0.271240056, -0.0268051289
   6342, -0.279410064, -0.0276950933
   6343, -0.287580073, -0.0285850577
   6344, -0.295750052, -0.0294750221
   6345,  -0.30392006, -0.0303649884
   6346, -0.312090069, -0.0312549509
   6347, -0.320260048, -0.0321449153
   6348, -0.328430057, -0.0330348797
   6349, -0.336600035, -0.0339248441
   6350, -0.344770044, -0.0348148122
   6351, -0.352940053, -0.0357047766
   6352, -0.361110032, -0.036594741
   6353,  -0.36928004, -0.0374847054
   6354, -0.377450049, -0.0383746698
   6355, -0.385620028, -0.0392646343
   6356, -0.393790036, -0.0401545987
   6357, -0.401960015, -0.0410445631
   6358, -0.410130024, -0.0419345275
   6359, -0.418300033, -0.0428244919
   6360, -0.426470011, -0.0437144563
   6361,  -0.43464002, -0.0446044207
   6362, -0.442810029, -0.0454943851
   6363, -0.450980008, -0.0463843495
   6364, -0.459150016, -0.0472743139
   6365, -0.467319995, -0.0481642783
   6366, -0.475490004, -0.0490542427
   6367, -0.483660012, -0.0499442071
   6368, -0.491829991, -0.0508341715
   6369, -0.107589021, -0.0119987102
   6370, -0.115764253, -0.0131855188
   6371, -0.123939484, -0.0143723274
   6372, -0.132114708, -0.0155591359
   6373, -0.140289932, -0.0167459436
   6374, -0.148465171, -0.0179327521
   6375, -0.156640396, -0.0191195607
   6376,  -0.16481562, -0.0203063693
   6377, -0.172990859, -0.0214931779
   6378, -0.181166083, -0.0226799864
   6379, -0.189341307, -0.023866795
   6380, -0.197516546, -0.0250536036
   6381,  -0.20569177, -0.0262404121
   6382, -0.213866994, -0.0274272207
   6383, -0.222042233, -0.0286140293
   6384, -0.230217457, -0.0298008379
   6385, -0.238392681, -0.0309876464
   6386, -0.246567905, -0.0321744531
   6387, -0.254743129, -0.0333612636
   6388, -0.262918383, -0.0345480703
   6389, -0.271093607, -0.0357348807
   6390, -0.279268831, -0.0369216874
   6391, -0.287444055, -0.0381084979
   6392, -0.295619279, -0.0392953046
   6393, -0.303794503, -0.040482115
   6394, -0.311969727, -0.0416689217
   6395, -0.320144981, -0.0428557321
   6396, -0.328320205, -0.0440425389
   6397, -0.336495429, -0.0452293493
   6398, -0.344670653, -0.046416156
   6399, -0.352845877, -0.0476029664
   6400, -0.361021101, -0.0487897731
   6401, -0.369196355, -0.0499765798
   6402, -0.377371579, -0.0511633903
   6403, -0.385546803, -0.052350197
   6404, -0.393722028, -0.0535370074
   6405, -0.401897252, -0.0547238141
   6406, -0.410072476, -0.0559106246
   6407,   -0.4182477, -0.0570974313
   6408, -0.426422954, -0.0582842417
   6409, -0.434598178, -0.0594710484
   6410, -0.442773402, -0.0606578588
   6411, -0.450948626, -0.0618446656
   6412,  -0.45912385, -0.0630314723
   6413, -0.467299074, -0.0642182827
   6414, -0.475474328, -0.0654050931
   6415, -0.483649552, -0.0665919036
   6416, -0.491824776, -0.0677787066
   6417, -0.107266508, -0.0149838151
   6418, -0.115448453, -0.016467629
   6419, -0.123630404, -0.0179514438
   6420, -0.131812349, -0.0194352586
   6421, -0.139994293, -0.0209190715
   6422, -0.148176253, -0.0224028863
   6423, -0.156358197, -0.0238867011
   6424, -0.164540142, -0.025370514
   6425, -0.172722086, -0.0268543288
   6426, -0.180904031, -0.0283381436
   6427,  -0.18908599, -0.0298219565
   6428, -0.197267935, -0.0313057713
   6429, -0.205449879, -0.0327895842
   6430, -0.213631824, -0.0342734009
   6431, -0.221813783, -0.0357572138
   6432, -0.229995728, -0.0372410268
   6433, -0.238177672, -0.0387248434
   6434, -0.246359617, -0.0402086563
   6435, -0.254541576, -0.0416924693
   6436, -0.262723505, -0.0431762859
   6437, -0.270905465, -0.0446600989
   6438, -0.279087424, -0.0461439118
   6439, -0.287269354, -0.0476277284
   6440, -0.295451313, -0.0491115414
   6441, -0.303633243, -0.0505953543
   6442, -0.311815202, -0.0520791709
   6443, -0.319997162, -0.0535629839
   6444, -0.328179091, -0.0550467968
   6445, -0.336361051, -0.0565306135
   6446,  -0.34454298, -0.0580144264
   6447,  -0.35272494, -0.059498243
   6448, -0.360906899, -0.060982056
   6449, -0.369088829, -0.0624658689
   6450, -0.377270788, -0.0639496818
   6451, -0.385452718, -0.0654334947
   6452, -0.393634677, -0.0669173151
   6453, -0.401816636, -0.0684011281
   6454, -0.409998566, -0.069884941
   6455, -0.418180525, -0.0713687539
   6456, -0.426362485, -0.0728525668
   6457, -0.434544414, -0.0743363798
   6458, -0.442726374, -0.0758202001
   6459, -0.450908303, -0.0773040131
   6460, -0.459090263, -0.078787826
   6461, -0.467272222, -0.0802716389
   6462, -0.475454152, -0.0817554519
   6463, -0.483636111, -0.0832392648
   6464, -0.491818041, -0.0847230852
   6465, -0.106872804, -0.0179592222
   6466, -0.115062952, -0.0197402444
   6467,   -0.1232531, -0.0215212647
   6468, -0.131443247, -0.0233022869
   6469, -0.139633402, -0.025083309
   6470, -0.147823557, -0.0268643312
   6471, -0.156013697, -0.0286453534
   6472, -0.164203852, -0.0304263756
   6473, -0.172394007, -0.0322073959
   6474, -0.180584148, -0.0339884199
   6475, -0.188774303, -0.0357694402
   6476, -0.196964458, -0.0375504643
   6477, -0.205154598, -0.0393314846
   6478, -0.213344753, -0.0411125086
   6479, -0.221534908, -0.0428935289
   6480, -0.229725048, -0.0446745493
   6481, -0.237915203, -0.0464555733
   6482, -0.246105358, -0.0482365936
   6483, -0.254295498, -0.0500176176
   6484, -0.262485653, -0.051798638
   6485, -0.270675808, -0.053579662
   6486, -0.278865963, -0.0553606823
   6487, -0.287056088, -0.0571417063
   6488, -0.295246243, -0.0589227267
   6489, -0.303436399, -0.060703747
   6490, -0.311626554, -0.062484771
   6491, -0.319816709, -0.0642657951
   6492, -0.328006864, -0.0660468116
   6493, -0.336196989, -0.0678278357
   6494, -0.344387144, -0.0696088597
   6495, -0.352577299, -0.0713898838
   6496, -0.360767454, -0.0731709003
   6497, -0.368957609, -0.0749519244
   6498, -0.377147764, -0.0767329484
   6499, -0.385337889, -0.078513965
   6500, -0.393528044, -0.080294989
   6501, -0.401718199, -0.0820760131
   6502, -0.409908354, -0.0838570371
   6503, -0.418098509, -0.0856380537
   6504, -0.426288664, -0.0874190778
   6505,  -0.43447879, -0.0892001018
   6506, -0.442668945, -0.0909811258
   6507,   -0.4508591, -0.0927621424
   6508, -0.459049255, -0.0945431665
   6509,  -0.46723941, -0.0963241905
   6510, -0.475429565, -0.0981052071
   6511,  -0.48361969, -0.0998862311
   6512, -0.491809845, -0.101667255
   6513, -0.106408201, -0.0209230036
   6514, -0.114608027, -0.0230014753
   6515, -0.122807853, -0.0250799488
   6516, -0.131007686, -0.0271584205
   6517, -0.139207512, -0.0292368922
   6518, -0.147407338, -0.0313153639
   6519, -0.155607179, -0.0333938338
   6520, -0.163807005, -0.0354723074
   6521, -0.172006831, -0.0375507809
   6522, -0.180206656, -0.0396292508
   6523, -0.188406482, -0.0417077243
   6524, -0.196606323, -0.0437861942
   6525, -0.204806149, -0.0458646677
   6526, -0.213005975, -0.0479431376
   6527, -0.221205801, -0.0500216112
   6528, -0.229405642, -0.052100081
   6529, -0.237605467, -0.0541785546
   6530, -0.245805293, -0.0562570281
   6531, -0.254005134, -0.058335498
   6532, -0.262204945, -0.0604139715
   6533, -0.270404786, -0.0624924414
   6534, -0.278604597, -0.0645709112
   6535, -0.286804438, -0.0666493848
   6536, -0.295004278, -0.0687278584
   6537, -0.303204089, -0.0708063319
   6538,  -0.31140393, -0.072884798
   6539, -0.319603771, -0.0749632716
   6540, -0.327803582, -0.0770417452
   6541, -0.336003423, -0.0791202188
   6542, -0.344203234, -0.0811986923
   6543, -0.352403075, -0.0832771584
   6544, -0.360602915, -0.085355632
   6545, -0.368802726, -0.0874341056
   6546, -0.377002567, -0.0895125791
   6547, -0.385202378, -0.0915910453
   6548, -0.393402219, -0.0936695188
   6549,  -0.40160206, -0.0957479924
   6550, -0.409801871, -0.097826466
   6551, -0.418001711, -0.0999049395
   6552, -0.426201522, -0.101983406
   6553, -0.434401363, -0.104061879
   6554, -0.442601204, -0.106140353
   6555, -0.450801015, -0.108218826
   6556, -0.459000856, -0.110297292
   6557, -0.467200696, -0.112375766
   6558, -0.475400507,  -0.11445424
   6559, -0.483600348, -0.116532713
   6560, -0.491800159, -0.118611187
   6561, -0.105873033, -0.0238732472
   6562, -0.114084013, -0.0262494516
   6563, -0.122294992, -0.0286256559
   6564, -0.130505964, -0.0310018603
   6565, -0.138716951, -0.0333780646
   6566, -0.146927923, -0.0357542671
   6567,  -0.15513891, -0.0381304696
   6568, -0.163349882, -0.0405066758
   6569, -0.171560869, -0.0428828783
   6570, -0.179771841, -0.0452590846
   6571, -0.187982813, -0.047635287
   6572, -0.196193799, -0.0500114895
   6573, -0.204404771, -0.0523876958
   6574, -0.212615758, -0.0547638983
   6575,  -0.22082673, -0.0571401007
   6576, -0.229037717, -0.059516307
   6577, -0.237248689, -0.0618925095
   6578, -0.245459661, -0.0642687157
   6579, -0.253670633, -0.0666449144
   6580,  -0.26188162, -0.0690211207
   6581, -0.270092607, -0.0713973269
   6582, -0.278303593, -0.0737735331
   6583,  -0.28651455, -0.0761497319
   6584, -0.294725537, -0.0785259381
   6585, -0.302936524, -0.0809021443
   6586, -0.311147481, -0.0832783431
   6587, -0.319358468, -0.0856545493
   6588, -0.327569455, -0.0880307555
   6589, -0.335780442, -0.0904069543
   6590, -0.343991399, -0.0927831605
   6591, -0.352202386, -0.0951593667
   6592, -0.360413373, -0.0975355655
   6593, -0.368624359, -0.0999117717
   6594, -0.376835316, -0.102287978
   6595, -0.385046303, -0.104664177
   6596,  -0.39325729, -0.107040383
   6597, -0.401468247, -0.109416589
   6598, -0.409679234, -0.111792795
   6599, -0.417890221, -0.114168994
   6600, -0.426101208,   -0.1165452
   6601, -0.434312165, -0.118921407
   6602, -0.442523152, -0.121297605
   6603, -0.450734138, -0.123673812
   6604, -0.458945096,  -0.12605001
   6605, -0.467156082, -0.128426224
   6606, -0.475367069, -0.130802423
   6607, -0.483578056, -0.133178622
   6608, -0.491789013, -0.135554835
   6609, -0.105267704, -0.0268080477
   6610, -0.113491297, -0.029482305
   6611, -0.121714883, -0.0321565606
   6612, -0.129938468, -0.0348308198
   6613, -0.138162062, -0.0375050791
   6614, -0.146385655, -0.0401793346
   6615, -0.154609248, -0.0428535938
   6616, -0.162832826, -0.0455278493
   6617,  -0.17105642, -0.0482021086
   6618, -0.179280013, -0.0508763641
   6619, -0.187503606, -0.0535506234
   6620, -0.195727184, -0.0562248826
   6621, -0.203950778, -0.0588991381
   6622, -0.212174371, -0.0615733974
   6623, -0.220397964, -0.0642476529
   6624, -0.228621542, -0.0669219121
   6625, -0.236845136, -0.0695961714
   6626, -0.245068729, -0.0722704232
   6627, -0.253292322, -0.0749446824
   6628, -0.261515915, -0.0776189417
   6629, -0.269739509, -0.0802932009
   6630, -0.277963072, -0.0829674602
   6631, -0.286186665, -0.085641712
   6632, -0.294410259, -0.0883159712
   6633, -0.302633852, -0.0909902304
   6634, -0.310857445, -0.0936644897
   6635, -0.319081038, -0.0963387489
   6636, -0.327304631, -0.0990130007
   6637, -0.335528225,  -0.10168726
   6638, -0.343751788, -0.104361519
   6639, -0.351975381, -0.107035778
   6640, -0.360198975,  -0.10971003
   6641, -0.368422568,  -0.11238429
   6642, -0.376646161, -0.115058549
   6643, -0.384869754, -0.117732808
   6644, -0.393093348, -0.120407067
   6645, -0.401316941, -0.123081319
   6646, -0.409540504, -0.125755578
   6647, -0.417764097,  -0.12842983
   6648, -0.425987691, -0.131104097
   6649, -0.434211284, -0.133778349
   6650, -0.442434877, -0.136452615
   6651,  -0.45065847, -0.139126867
   6652, -0.458882064, -0.141801119
   6653, -0.467105657, -0.144475386
   6654,  -0.47532922, -0.147149637
   6655, -0.483552814, -0.149823904
   6656, -0.491776407, -0.152498156
   6657, -0.104592651, -0.0297255069
   6658, -0.112830304, -0.0326981805
   6659, -0.121067956, -0.0356708504
   6660, -0.129305616, -0.0386435241
   6661, -0.137543261, -0.0416161977
   6662, -0.145780921, -0.0445888713
   6663, -0.154018566, -0.0475615412
   6664, -0.162256226, -0.0505342148
   6665, -0.170493871, -0.0535068884
   6666, -0.178731531, -0.0564795621
   6667, -0.186969176, -0.059452232
   6668, -0.195206836, -0.0624249056
   6669, -0.203444496, -0.0653975755
   6670, -0.211682141, -0.0683702528
   6671, -0.219919801, -0.0713429227
   6672, -0.228157446, -0.0743155926
   6673, -0.236395106,  -0.07728827
   6674, -0.244632751, -0.0802609399
   6675, -0.252870411, -0.0832336172
   6676, -0.261108071, -0.0862062871
   6677, -0.269345701, -0.089178957
   6678, -0.277583361, -0.0921516344
   6679, -0.285821021, -0.0951243043
   6680, -0.294058681, -0.0980969742
   6681,  -0.30229634, -0.101069652
   6682, -0.310533971, -0.104042321
   6683, -0.318771631, -0.107014999
   6684,  -0.32700929, -0.109987669
   6685,  -0.33524695, -0.112960339
   6686, -0.343484581, -0.115933016
   6687,  -0.35172224, -0.118905686
   6688,   -0.3599599, -0.121878356
   6689,  -0.36819756, -0.124851033
   6690,  -0.37643519,  -0.12782371
   6691,  -0.38467285, -0.130796373
   6692,  -0.39291051,  -0.13376905
   6693,  -0.40114817, -0.136741728
   6694,  -0.40938583,  -0.13971439
   6695,  -0.41762346, -0.142687067
   6696,  -0.42586112, -0.145659745
   6697,  -0.43409878, -0.148632407
   6698,  -0.44233644, -0.151605085
   6699,  -0.45057407, -0.154577762
   6700,  -0.45881173, -0.157550424
   6701,  -0.46704939, -0.160523102
   6702,  -0.47528705, -0.163495779
   6703,  -0.48352468, -0.166468441
   6704,  -0.49176234, -0.169441119
   6705, -0.103848375, -0.0326237455
   6706, -0.112101533, -0.0358952321
   6707,  -0.12035469, -0.0391667224
   6708, -0.128607854, -0.0424382091
   6709, -0.136861011, -0.0457096994
   6710, -0.145114169, -0.048981186
   6711, -0.153367326, -0.0522526726
   6712, -0.161620483, -0.0555241629
   6713,  -0.16987364, -0.0587956496
   6714, -0.178126797, -0.0620671362
   6715, -0.186379969, -0.0653386265
   6716, -0.194633126, -0.0686101168
   6717, -0.202886283, -0.0718815997
   6718, -0.211139441, -0.0751530901
   6719, -0.219392598, -0.0784245804
   6720, -0.227645755, -0.0816960633
   6721, -0.235898912, -0.0849675536
   6722, -0.244152069, -0.088239044
   6723, -0.252405226, -0.0915105268
   6724, -0.260658383, -0.0947820172
   6725, -0.268911541, -0.0980535075
   6726, -0.277164698, -0.101324998
   6727, -0.285417855, -0.104596481
   6728, -0.293671042, -0.107867971
   6729, -0.301924199, -0.111139461
   6730, -0.310177356, -0.114410944
   6731, -0.318430513, -0.117682435
   6732,  -0.32668367, -0.120953925
   6733, -0.334936827, -0.124225408
   6734, -0.343189985, -0.127496898
   6735, -0.351443142, -0.130768389
   6736, -0.359696299, -0.134039879
   6737, -0.367949456, -0.137311369
   6738, -0.376202613, -0.140582845
   6739,  -0.38445577, -0.143854335
   6740, -0.392708927, -0.147125825
   6741, -0.400962085, -0.150397316
   6742, -0.409215242, -0.153668806
   6743, -0.417468399, -0.156940296
   6744, -0.425721556, -0.160211787
   6745, -0.433974743, -0.163483262
   6746,   -0.4422279, -0.166754752
   6747, -0.450481057, -0.170026243
   6748, -0.458734214, -0.173297733
   6749, -0.466987371, -0.176569223
   6750, -0.475240529, -0.179840714
   6751, -0.483493686, -0.183112189
   6752, -0.491746843,  -0.18638368
   6753, -0.103035413, -0.0355008952
   6754, -0.111305505, -0.0390716381
   6755, -0.119575605, -0.042642381
   6756, -0.127845705, -0.0462131239
   6757, -0.136115789, -0.0497838669
   6758, -0.144385889, -0.0533546098
   6759, -0.152655989, -0.0569253527
   6760, -0.160926089, -0.0604960956
   6761, -0.169196174, -0.0640668422
   6762, -0.177466273, -0.0676375777
   6763, -0.185736373, -0.0712083206
   6764, -0.194006458, -0.0747790635
   6765, -0.202276558, -0.0783498064
   6766, -0.210546657, -0.0819205493
   6767, -0.218816757, -0.0854912922
   6768, -0.227086842, -0.0890620351
   6769, -0.235356942, -0.092632778
   6770, -0.243627042, -0.0962035209
   6771, -0.251897126, -0.0997742638
   6772, -0.260167241, -0.103345007
   6773, -0.268437326,  -0.10691575
   6774, -0.276707411, -0.110486493
   6775, -0.284977525, -0.114057235
   6776,  -0.29324761, -0.117627978
   6777, -0.301517695, -0.121198721
   6778,  -0.30978781, -0.124769464
   6779, -0.318057895, -0.128340214
   6780,  -0.32632798,  -0.13191095
   6781, -0.334598094,   -0.1354817
   6782, -0.342868179, -0.139052436
   6783, -0.351138294, -0.142623186
   6784, -0.359408379, -0.146193922
   6785, -0.367678463, -0.149764672
   6786, -0.375948578, -0.153335407
   6787, -0.384218663, -0.156906158
   6788, -0.392488748, -0.160476893
   6789, -0.400758862, -0.164047644
   6790, -0.409028947, -0.167618379
   6791, -0.417299032, -0.171189129
   6792, -0.425569147, -0.174759865
   6793, -0.433839232, -0.178330615
   6794, -0.442109317, -0.181901351
   6795, -0.450379431, -0.185472101
   6796, -0.458649516, -0.189042836
   6797, -0.466919631, -0.192613587
   6798, -0.475189716, -0.196184322
   6799,   -0.4834598, -0.199755073
   6800, -0.491729915, -0.203325808
   6801, -0.102154367, -0.0383551046
   6802, -0.110442817, -0.0422255807
   6803, -0.118731268, -0.0460960567
   6804, -0.127019718, -0.0499665327
   6805, -0.135308176, -0.0538370088
   6806, -0.143596619, -0.0577074848
   6807, -0.151885077, -0.0615779571
   6808,  -0.16017352, -0.0654484332
   6809, -0.168461978, -0.0693189129
   6810, -0.176750422, -0.0731893852
   6811,  -0.18503888, -0.0770598575
   6812, -0.193327323, -0.0809303373
   6813, -0.201615781, -0.0848008096
   6814, -0.209904224, -0.0886712894
   6815, -0.218192682, -0.0925417617
   6816, -0.226481125, -0.0964122415
   6817, -0.234769583, -0.100282714
   6818, -0.243058026, -0.104153186
   6819, -0.251346469, -0.108023666
   6820, -0.259634942, -0.111894138
   6821, -0.267923385, -0.115764618
   6822, -0.276211828,  -0.11963509
   6823, -0.284500271,  -0.12350557
   6824, -0.292788744,  -0.12737605
   6825, -0.301077187, -0.131246522
   6826,  -0.30936563, -0.135116994
   6827, -0.317654073, -0.138987467
   6828, -0.325942546, -0.142857939
   6829, -0.334230989, -0.146728426
   6830, -0.342519432, -0.150598899
   6831, -0.350807875, -0.154469371
   6832, -0.359096348, -0.158339843
   6833, -0.367384791, -0.162210315
   6834, -0.375673234, -0.166080803
   6835, -0.383961678, -0.169951275
   6836,  -0.39225015, -0.173821747
   6837, -0.400538594,  -0.17769222
   6838, -0.408827037, -0.181562707
   6839,  -0.41711548, -0.185433179
   6840, -0.425403953, -0.189303651
   6841, -0.433692396, -0.193174124
   6842, -0.441980839, -0.197044596
   6843, -0.450269282, -0.200915083
   6844, -0.458557755, -0.204785556
   6845, -0.466846198, -0.208656028
   6846, -0.475134641,   -0.2125265
   6847, -0.483423084, -0.216396973
   6848, -0.491711557,  -0.22026746
   6849, -0.101205885, -0.0411845408
   6850, -0.109514095, -0.0453552641
   6851, -0.117822304, -0.0495259874
   6852, -0.126130521, -0.0536967143
   6853, -0.134438723, -0.0578674376
   6854,  -0.14274694, -0.0620381609
   6855, -0.151055142, -0.0662088841
   6856, -0.159363359, -0.0703796074
   6857, -0.167671576, -0.0745503381
   6858, -0.175979778, -0.0787210613
   6859, -0.184287995, -0.0828917846
   6860, -0.192596197, -0.0870625079
   6861, -0.200904414, -0.0912332311
   6862, -0.209212616, -0.0954039544
   6863, -0.217520833, -0.0995746776
   6864,  -0.22582905, -0.103745408
   6865, -0.234137252, -0.107916132
   6866, -0.242445469, -0.112086855
   6867, -0.250753671, -0.116257578
   6868, -0.259061873, -0.120428301
   6869, -0.267370105, -0.124599025
   6870, -0.275678307, -0.128769755
   6871, -0.283986509, -0.132940471
   6872, -0.292294741, -0.137111202
   6873, -0.300602943, -0.141281918
   6874, -0.308911145, -0.145452648
   6875, -0.317219377, -0.149623379
   6876, -0.325527579, -0.153794095
   6877, -0.333835781, -0.157964826
   6878, -0.342143983, -0.162135541
   6879, -0.350452214, -0.166306272
   6880, -0.358760417, -0.170477003
   6881, -0.367068619, -0.174647719
   6882,  -0.37537685, -0.178818449
   6883, -0.383685052, -0.182989165
   6884, -0.391993254, -0.187159896
   6885, -0.400301456, -0.191330612
   6886, -0.408609688, -0.195501342
   6887,  -0.41691789, -0.199672073
   6888, -0.425226092, -0.203842789
   6889, -0.433534324,  -0.20801352
   6890, -0.441842526, -0.212184235
   6891, -0.450150728, -0.216354966
   6892,  -0.45845896, -0.220525682
   6893, -0.466767162, -0.224696413
   6894, -0.475075364, -0.228867143
   6895, -0.483383566, -0.233037859
   6896, -0.491691798,  -0.23720859
   6897, -0.100190654, -0.0439873822
   6898, -0.108520016, -0.0484589078
   6899, -0.116849378, -0.052930437
   6900, -0.125178739, -0.0574019626
   6901, -0.133508101, -0.0618734919
   6902, -0.141837463, -0.0663450211
   6903, -0.150166824, -0.0708165467
   6904, -0.158496186, -0.0752880722
   6905, -0.166825548, -0.0797595978
   6906, -0.175154909, -0.0842311233
   6907, -0.183484271, -0.0887026563
   6908, -0.191813633, -0.0931741819
   6909, -0.200142995, -0.0976457074
   6910, -0.208472356, -0.102117233
   6911, -0.216801718, -0.106588766
   6912,  -0.22513108, -0.111060292
   6913, -0.233460441, -0.115531817
   6914, -0.241789803, -0.120003343
   6915,  -0.25011915, -0.124474868
   6916, -0.258448511, -0.128946394
   6917, -0.266777873, -0.133417919
   6918, -0.275107235,  -0.13788946
   6919, -0.283436596, -0.142360985
   6920, -0.291765958, -0.146832511
   6921,  -0.30009532, -0.151304036
   6922, -0.308424681, -0.155775562
   6923, -0.316754043, -0.160247087
   6924, -0.325083405, -0.164718613
   6925, -0.333412766, -0.169190139
   6926, -0.341742128, -0.173661679
   6927,  -0.35007149, -0.178133205
   6928, -0.358400851,  -0.18260473
   6929, -0.366730213, -0.187076256
   6930, -0.375059575, -0.191547781
   6931, -0.383388937, -0.196019307
   6932, -0.391718298, -0.200490832
   6933,  -0.40004766, -0.204962358
   6934, -0.408377022, -0.209433883
   6935, -0.416706383, -0.213905424
   6936, -0.425035745, -0.218376949
   6937, -0.433365107, -0.222848475
   6938, -0.441694468, -0.227320001
   6939,  -0.45002383, -0.231791526
   6940, -0.458353192, -0.236263052
   6941, -0.466682553, -0.240734577
   6942, -0.475011915, -0.245206103
   6943, -0.483341277, -0.249677628
   6944, -0.491670638, -0.254149169
   6945, -0.0991094261, -0.0467618331
   6946, -0.107461318, -0.0515347533
   6947, -0.115813203, -0.0563076735
   6948, -0.124165088, -0.0610805973
   6949,  -0.13251698, -0.0658535212
   6950, -0.140868858, -0.0706264377
   6951,  -0.14922075, -0.0753993616
   6952, -0.157572642, -0.0801722854
   6953, -0.165924519, -0.0849452019
   6954, -0.174276412, -0.0897181258
   6955, -0.182628304, -0.0944910496
   6956, -0.190980181, -0.0992639661
   6957, -0.199332073,  -0.10403689
   6958, -0.207683966, -0.108809814
   6959, -0.216035843, -0.113582738
   6960, -0.224387735, -0.118355654
   6961, -0.232739612, -0.123128578
   6962, -0.241091505, -0.127901495
   6963, -0.249443397, -0.132674426
   6964, -0.257795274, -0.137447342
   6965, -0.266147166, -0.142220259
   6966, -0.274499059,  -0.14699319
   6967, -0.282850951, -0.151766106
   6968, -0.291202813, -0.156539023
   6969, -0.299554706, -0.161311954
   6970, -0.307906598, -0.166084871
   6971,  -0.31625849, -0.170857787
   6972, -0.324610382, -0.175630718
   6973, -0.332962275, -0.180403635
   6974, -0.341314137, -0.185176551
   6975, -0.349666029, -0.189949483
   6976, -0.358017921, -0.194722399
   6977, -0.366369814,  -0.19949533
   6978, -0.374721706, -0.204268247
   6979, -0.383073598, -0.209041163
   6980, -0.391425461, -0.213814095
   6981, -0.399777353, -0.218587011
   6982, -0.408129245, -0.223359928
   6983, -0.416481137, -0.228132859
   6984,  -0.42483303, -0.232905775
   6985, -0.433184892, -0.237678692
   6986, -0.441536784, -0.242451623
   6987, -0.449888676,  -0.24722454
   6988, -0.458240569, -0.251997471
   6989, -0.466592461, -0.256770372
   6990, -0.474944353, -0.261543304
   6991, -0.483296216, -0.266316235
   6992, -0.491648108, -0.271089137
   6993, -0.0979629979, -0.0495061167
   6994, -0.106338769, -0.054581061
   6995, -0.114714541, -0.0596560054
   6996, -0.123090312, -0.0647309497
   6997, -0.131466076, -0.0698058903
   6998, -0.139841855, -0.0748808384
   6999, -0.148217618, -0.079955779
   7000, -0.156593397, -0.0850307271
   7001, -0.164969161, -0.0901056677
   7002,  -0.17334494, -0.0951806158
   7003, -0.181720704, -0.100255556
   7004, -0.190096483, -0.105330504
   7005, -0.198472247, -0.110405445
   7006, -0.206848025, -0.115480393
   7007, -0.215223789, -0.120555334
   7008, -0.223599553, -0.125630274
   7009, -0.231975332, -0.130705222
   7010, -0.240351096, -0.135780171
   7011, -0.248726875, -0.140855119
   7012, -0.257102638, -0.145930067
   7013, -0.265478402,    -0.151005
   7014, -0.273854196, -0.156079948
   7015,  -0.28222996, -0.161154896
   7016, -0.290605724, -0.166229844
   7017, -0.298981488, -0.171304777
   7018, -0.307357281, -0.176379725
   7019, -0.315733045, -0.181454673
   7020, -0.324108809, -0.186529621
   7021, -0.332484573, -0.191604555
   7022, -0.340860367, -0.196679503
   7023, -0.349236131, -0.201754451
   7024, -0.357611895, -0.206829399
   7025, -0.365987659, -0.211904332
   7026, -0.374363422,  -0.21697928
   7027, -0.382739216, -0.222054228
   7028,  -0.39111498, -0.227129176
   7029, -0.399490744, -0.232204109
   7030, -0.407866508, -0.237279058
   7031, -0.416242301, -0.242354006
   7032, -0.424618065, -0.247428954
   7033, -0.432993829, -0.252503902
   7034, -0.441369593,  -0.25757885
   7035, -0.449745387, -0.262653768
   7036, -0.458121151, -0.267728716
   7037, -0.466496915, -0.272803664
   7038, -0.474872679, -0.277878612
   7039, -0.483248472,  -0.28295356
   7040, -0.491624236, -0.288028508
   7041, -0.0967521966, -0.0522184782
   7042, -0.105153196, -0.0575961098
   7043, -0.113554195, -0.0629737377
   7044, -0.121955186, -0.0683513731
   7045, -0.130356178, -0.0737290084
   7046, -0.138757184, -0.0791066363
   7047, -0.147158176, -0.0844842717
   7048, -0.155559167, -0.0898618996
   7049, -0.163960174, -0.095239535
   7050, -0.172361165,  -0.10061717
   7051, -0.180762157, -0.105994798
   7052, -0.189163148, -0.111372434
   7053, -0.197564155, -0.116750062
   7054, -0.205965146, -0.122127697
   7055, -0.214366138, -0.127505332
   7056, -0.222767144, -0.132882968
   7057, -0.231168136, -0.138260588
   7058, -0.239569128, -0.143638223
   7059, -0.247970119, -0.149015859
   7060, -0.256371111, -0.154393494
   7061, -0.264772117, -0.159771129
   7062, -0.273173124,  -0.16514875
   7063,   -0.2815741, -0.170526385
   7064, -0.289975107, -0.175904021
   7065, -0.298376113, -0.181281656
   7066,  -0.30677709, -0.186659291
   7067, -0.315178096, -0.192036912
   7068, -0.323579073, -0.197414547
   7069, -0.331980079, -0.202792183
   7070, -0.340381086, -0.208169818
   7071, -0.348782063, -0.213547453
   7072, -0.357183069, -0.218925074
   7073, -0.365584075, -0.224302709
   7074, -0.373985052, -0.229680344
   7075, -0.382386059,  -0.23505798
   7076, -0.390787065,   -0.2404356
   7077, -0.399188042, -0.245813236
   7078, -0.407589048, -0.251190871
   7079, -0.415990055, -0.256568491
   7080, -0.424391031, -0.261946142
   7081, -0.432792038, -0.267323762
   7082, -0.441193014, -0.272701412
   7083, -0.449594021, -0.278079033
   7084, -0.457995027, -0.283456653
   7085, -0.466396004, -0.288834304
   7086,  -0.47479701, -0.294211924
   7087, -0.483198017, -0.299589574
   7088, -0.491598994, -0.304967195
   7089, -0.0954779238, -0.0548971854
   7090, -0.103905469, -0.0605782047
   7091, -0.112333015, -0.0662592277
   7092,  -0.12076056, -0.0719402507
   7093, -0.129188105, -0.0776212662
   7094, -0.137615636, -0.0833022892
   7095, -0.146043181, -0.0889833122
   7096, -0.154470727, -0.0946643353
   7097, -0.162898272, -0.100345358
   7098, -0.171325818, -0.106026374
   7099, -0.179753363, -0.111707397
   7100, -0.188180909,  -0.11738842
   7101, -0.196608439, -0.123069443
   7102, -0.205035985, -0.128750458
   7103,  -0.21346353, -0.134431481
   7104, -0.221891075, -0.140112504
   7105, -0.230318621, -0.145793527
   7106, -0.238746166,  -0.15147455
   7107, -0.247173712, -0.157155573
   7108, -0.255601257, -0.162836596
   7109, -0.264028788, -0.168517604
   7110, -0.272456348, -0.174198627
   7111, -0.280883878,  -0.17987965
   7112, -0.289311409, -0.185560673
   7113, -0.297738969, -0.191241696
   7114,   -0.3061665, -0.196922719
   7115,  -0.31459406, -0.202603742
   7116, -0.323021591, -0.208284765
   7117, -0.331449151, -0.213965774
   7118, -0.339876682, -0.219646797
   7119, -0.348304212,  -0.22532782
   7120, -0.356731772, -0.231008843
   7121, -0.365159303, -0.236689866
   7122, -0.373586863, -0.242370889
   7123, -0.382014394, -0.248051912
   7124, -0.390441924,  -0.25373292
   7125, -0.398869485, -0.259413958
   7126, -0.407297015, -0.265094966
   7127, -0.415724576, -0.270776004
   7128, -0.424152106, -0.276457012
   7129, -0.432579666,  -0.28213805
   7130, -0.441007197, -0.287819058
   7131, -0.449434727, -0.293500066
   7132, -0.457862288, -0.299181104
   7133, -0.466289818, -0.304862112
   7134, -0.474717379,  -0.31054315
   7135, -0.483144909, -0.316224158
   7136, -0.491572469, -0.321905196
   7137, -0.0941411108, -0.0575405322
   7138, -0.102596506, -0.0635256767
   7139, -0.111051895, -0.069510825
   7140,  -0.11950729, -0.0754959732
   7141, -0.127962679, -0.0814811215
   7142, -0.136418074, -0.0874662697
   7143,  -0.14487347, -0.093451418
   7144, -0.153328866, -0.0994365588
   7145, -0.161784261, -0.105421707
   7146, -0.170239657, -0.111406855
   7147, -0.178695053, -0.117392004
   7148, -0.187150434, -0.123377152
   7149, -0.195605829,   -0.1293623
   7150, -0.204061225, -0.135347441
   7151, -0.212516621, -0.141332597
   7152, -0.220972016, -0.147317737
   7153, -0.229427412, -0.153302878
   7154, -0.237882808, -0.159288034
   7155, -0.246338189, -0.165273175
   7156, -0.254793584,  -0.17125833
   7157,  -0.26324898, -0.177243471
   7158, -0.271704376, -0.183228612
   7159, -0.280159771, -0.189213768
   7160, -0.288615167, -0.195198908
   7161, -0.297070563, -0.201184064
   7162, -0.305525959, -0.207169205
   7163, -0.313981354, -0.213154361
   7164,  -0.32243675, -0.219139501
   7165, -0.330892116, -0.225124642
   7166, -0.339347512, -0.231109798
   7167, -0.347802907, -0.237094939
   7168, -0.356258303, -0.243080094
   7169, -0.364713699, -0.249065235
   7170, -0.373169094, -0.255050391
   7171,  -0.38162449, -0.261035532
   7172, -0.390079886, -0.267020673
   7173, -0.398535281, -0.273005813
   7174, -0.406990677, -0.278990984
   7175, -0.415446073, -0.284976125
   7176, -0.423901469, -0.290961266
   7177, -0.432356864, -0.296946406
   7178,  -0.44081226, -0.302931547
   7179, -0.449267626, -0.308916718
   7180, -0.457723022, -0.314901859
   7181, -0.466178417, -0.320886999
   7182, -0.474633813,  -0.32687214
   7183, -0.483089209, -0.332857281
   7184, -0.491544604, -0.338842452
   7185, -0.0927427337, -0.0601468422
   7186, -0.101227261, -0.0664368868
   7187, -0.109711789, -0.0727269277
   7188, -0.118196316, -0.0790169761
   7189, -0.126680836, -0.085307017
   7190, -0.135165364, -0.0915970653
   7191, -0.143649891, -0.0978871062
   7192, -0.152134418, -0.104177147
   7193, -0.160618946, -0.110467196
   7194, -0.169103473, -0.116757236
   7195, -0.177588001, -0.123047285
   7196, -0.186072528, -0.129337326
   7197, -0.194557056, -0.135627374
   7198, -0.203041583, -0.141917422
   7199, -0.211526096, -0.148207456
   7200, -0.220010623, -0.154497504
   7201, -0.228495151, -0.160787553
   7202, -0.236979678, -0.167077586
   7203, -0.245464206, -0.173367634
   7204, -0.253948748, -0.179657683
   7205, -0.262433261, -0.185947731
   7206, -0.270917773, -0.192237765
   7207, -0.279402316, -0.198527813
   7208, -0.287886828, -0.204817861
   7209, -0.296371371,  -0.21110791
   7210, -0.304855883, -0.217397943
   7211, -0.313340425, -0.223687991
   7212, -0.321824938,  -0.22997804
   7213,  -0.33030948, -0.236268073
   7214, -0.338793993, -0.242558122
   7215, -0.347278535,  -0.24884817
   7216, -0.355763048, -0.255138218
   7217,  -0.36424759, -0.261428267
   7218, -0.372732103, -0.267718315
   7219, -0.381216645, -0.274008334
   7220, -0.389701158, -0.280298382
   7221,  -0.39818567,  -0.28658843
   7222, -0.406670213, -0.292878479
   7223, -0.415154725, -0.299168527
   7224, -0.423639268, -0.305458575
   7225,  -0.43212378, -0.311748624
   7226, -0.440608323, -0.318038642
   7227, -0.449092835, -0.324328691
   7228, -0.457577378, -0.330618739
   7229,  -0.46606189, -0.336908787
   7230, -0.474546432, -0.343198836
   7231, -0.483030945, -0.349488884
   7232, -0.491515487, -0.355778933
   7233, -0.0912838206, -0.0627144575
   7234, -0.099798739, -0.0693102032
   7235, -0.108313657, -0.0759059489
   7236, -0.116828583, -0.0825016946
   7237, -0.125343502, -0.0890974477
   7238, -0.133858427, -0.0956931934
   7239, -0.142373338, -0.102288939
   7240, -0.150888264, -0.108884685
   7241,  -0.15940319, -0.115480438
   7242, -0.167918101, -0.122076184
   7243, -0.176433027, -0.128671929
   7244, -0.184947938, -0.135267675
   7245, -0.193462864, -0.141863421
   7246, -0.201977789, -0.148459181
   7247,   -0.2104927, -0.155054927
   7248, -0.219007626, -0.161650673
   7249, -0.227522552, -0.168246418
   7250, -0.236037463, -0.174842164
   7251, -0.244552389,  -0.18143791
   7252, -0.253067315, -0.188033655
   7253, -0.261582226, -0.194629416
   7254, -0.270097136, -0.201225162
   7255, -0.278612077, -0.207820907
   7256, -0.287126988, -0.214416653
   7257, -0.295641899, -0.221012399
   7258,  -0.30415684, -0.227608144
   7259, -0.312671751,  -0.23420389
   7260, -0.321186662, -0.240799636
   7261, -0.329701602, -0.247395396
   7262, -0.338216513, -0.253991127
   7263, -0.346731424, -0.260586888
   7264, -0.355246365, -0.267182648
   7265, -0.363761276, -0.273778379
   7266, -0.372276187,  -0.28037414
   7267, -0.380791128,  -0.28696987
   7268, -0.389306039, -0.293565631
   7269,  -0.39782095, -0.300161362
   7270,  -0.40633589, -0.306757122
   7271, -0.414850801, -0.313352853
   7272, -0.423365712, -0.319948614
   7273, -0.431880623, -0.326544374
   7274, -0.440395564, -0.333140105
   7275, -0.448910475, -0.339735866
   7276, -0.457425386, -0.346331596
   7277, -0.465940326, -0.352927357
   7278, -0.474455237, -0.359523088
   7279, -0.482970148, -0.366118848
   7280, -0.491485089, -0.372714609
   7281, -0.0897654369, -0.0652417466
   7282, -0.0983119905, -0.072144039
   7283, -0.106858544, -0.0790463313
   7284, -0.115405098, -0.0859486237
   7285, -0.123951651, -0.0928509161
   7286, -0.132498205, -0.0997532085
   7287, -0.141044766, -0.106655493
   7288, -0.149591312, -0.113557786
   7289, -0.158137873, -0.120460078
   7290, -0.166684419,  -0.12736237
   7291,  -0.17523098, -0.134264663
   7292, -0.183777526, -0.141166955
   7293, -0.192324087, -0.148069248
   7294, -0.200870633,  -0.15497154
   7295, -0.209417194, -0.161873832
   7296,  -0.21796374,  -0.16877611
   7297, -0.226510286, -0.175678402
   7298, -0.235056847, -0.182580695
   7299, -0.243603393, -0.189482987
   7300,  -0.25214994, -0.196385279
   7301, -0.260696501, -0.203287572
   7302, -0.269243062, -0.210189864
   7303, -0.277789623, -0.217092156
   7304, -0.286336154, -0.223994449
   7305, -0.294882715, -0.230896741
   7306, -0.303429276, -0.237799034
   7307, -0.311975837, -0.244701326
   7308, -0.320522368, -0.251603603
   7309, -0.329068929, -0.258505911
   7310,  -0.33761549, -0.265408188
   7311, -0.346162051, -0.272310495
   7312, -0.354708582, -0.279212773
   7313, -0.363255143,  -0.28611508
   7314, -0.371801704, -0.293017358
   7315, -0.380348265, -0.299919635
   7316, -0.388894796, -0.306821942
   7317, -0.397441357,  -0.31372422
   7318, -0.405987918, -0.320626527
   7319, -0.414534479, -0.327528805
   7320, -0.423081011, -0.334431112
   7321, -0.431627572, -0.341333389
   7322, -0.440174133, -0.348235697
   7323, -0.448720694, -0.355137974
   7324, -0.457267225, -0.362040281
   7325, -0.465813786, -0.368942559
   7326, -0.474360347, -0.375844836
   7327, -0.482906908, -0.382747144
   7328, -0.491453439, -0.389649421
   7329, -0.0881887078, -0.0677271262
   7330, -0.096768111, -0.074936837
   7331, -0.105347514, -0.0821465477
   7332, -0.113926917, -0.0893562511
   7333, -0.122506313, -0.0965659618
   7334, -0.131085724, -0.103775665
   7335, -0.139665127, -0.110985376
   7336, -0.148244515, -0.118195087
   7337, -0.156823918,  -0.12540479
   7338, -0.165403321, -0.132614493
   7339, -0.173982725, -0.139824212
   7340, -0.182562128, -0.147033915
   7341, -0.191141531, -0.154243618
   7342, -0.199720934, -0.161453336
   7343, -0.208300337,  -0.16866304
   7344,  -0.21687974, -0.175872743
   7345, -0.225459144, -0.183082461
   7346, -0.234038547, -0.190292165
   7347,  -0.24261795, -0.197501868
   7348, -0.251197338, -0.204711571
   7349, -0.259776741,  -0.21192129
   7350, -0.268356144, -0.219130993
   7351, -0.276935548, -0.226340696
   7352, -0.285514951, -0.233550414
   7353, -0.294094354, -0.240760118
   7354, -0.302673757, -0.247969821
   7355,  -0.31125316, -0.255179524
   7356, -0.319832563, -0.262389243
   7357, -0.328411967, -0.269598961
   7358,  -0.33699137, -0.276808649
   7359, -0.345570773, -0.284018368
   7360, -0.354150176, -0.291228086
   7361, -0.362729579, -0.298437774
   7362, -0.371308982, -0.305647492
   7363, -0.379888386, -0.312857181
   7364, -0.388467789, -0.320066899
   7365, -0.397047192, -0.327276617
   7366, -0.405626565, -0.334486306
   7367, -0.414205968, -0.341696024
   7368, -0.422785372, -0.348905742
   7369, -0.431364775, -0.356115431
   7370, -0.439944178, -0.363325149
   7371, -0.448523581, -0.370534867
   7372, -0.457102984, -0.377744555
   7373, -0.465682387, -0.384954274
   7374, -0.474261791, -0.392163992
   7375, -0.482841194,  -0.39937368
   7376, -0.491420597, -0.406583399
   7377, -0.0865547806, -0.0701690316
   7378, -0.0951682255, -0.0776870623
   7379, -0.103781663, -0.085205093
   7380, -0.112395108, -0.0927231237
   7381, -0.121008545, -0.100241154
   7382, -0.129621997, -0.107759185
   7383, -0.138235435, -0.115277208
   7384, -0.146848872, -0.122795239
   7385,  -0.15546231, -0.130313277
   7386, -0.164075762,   -0.1378313
   7387, -0.172689199, -0.145349339
   7388, -0.181302637, -0.152867362
   7389, -0.189916089,   -0.1603854
   7390, -0.198529527, -0.167903423
   7391, -0.207142964, -0.175421447
   7392, -0.215756416, -0.182939485
   7393, -0.224369854, -0.190457508
   7394, -0.232983291, -0.197975546
   7395, -0.241596743, -0.205493569
   7396, -0.250210166, -0.213011608
   7397, -0.258823633, -0.220529631
   7398, -0.267437071, -0.228047669
   7399, -0.276050508, -0.235565692
   7400, -0.284663945,  -0.24308373
   7401, -0.293277383, -0.250601768
   7402,  -0.30189082, -0.258119792
   7403, -0.310504287, -0.265637815
   7404, -0.319117725, -0.273155838
   7405, -0.327731162, -0.280673891
   7406,   -0.3363446, -0.288191915
   7407, -0.344958037, -0.295709938
   7408, -0.353571475, -0.303227961
   7409, -0.362184912, -0.310745984
   7410, -0.370798379, -0.318264037
   7411, -0.379411817, -0.325782061
   7412, -0.388025254, -0.333300084
   7413, -0.396638691, -0.340818107
   7414, -0.405252129,  -0.34833616
   7415, -0.413865566, -0.355854183
   7416, -0.422479033, -0.363372207
   7417, -0.431092471,  -0.37089023
   7418, -0.439705908, -0.378408283
   7419, -0.448319346, -0.385926306
   7420, -0.456932783,  -0.39344433
   7421, -0.465546221, -0.400962353
   7422, -0.474159688, -0.408480406
   7423, -0.482773125, -0.415998429
   7424, -0.491386563, -0.423516452
   7425, -0.0848648548, -0.0725659207
   7426, -0.0935135037, -0.0803932101
   7427, -0.102162153, -0.0882204995
   7428, -0.110810801, -0.0960477889
   7429,  -0.11945945, -0.103875078
   7430, -0.128108099, -0.111702368
   7431, -0.136756748, -0.119529665
   7432, -0.145405397, -0.127356946
   7433, -0.154054046, -0.135184243
   7434, -0.162702695,  -0.14301154
   7435, -0.171351343, -0.150838822
   7436, -0.179999992, -0.158666119
   7437, -0.188648641, -0.166493401
   7438,  -0.19729729, -0.174320698
   7439, -0.205945939,  -0.18214798
   7440, -0.214594588, -0.189975277
   7441, -0.223243237, -0.197802573
   7442, -0.231891885, -0.205629855
   7443, -0.240540534, -0.213457152
   7444, -0.249189183, -0.221284434
   7445, -0.257837832, -0.229111731
   7446, -0.266486466, -0.236939013
   7447,  -0.27513513,  -0.24476631
   7448, -0.283783764, -0.252593607
   7449, -0.292432427, -0.260420889
   7450, -0.301081061, -0.268248171
   7451, -0.309729725, -0.276075482
   7452, -0.318378359, -0.283902764
   7453, -0.327027023, -0.291730046
   7454, -0.335675657, -0.299557328
   7455, -0.344324321,  -0.30738464
   7456, -0.352972955, -0.315211922
   7457, -0.361621618, -0.323039204
   7458, -0.370270252, -0.330866516
   7459, -0.378918916, -0.338693798
   7460,  -0.38756755,  -0.34652108
   7461, -0.396216214, -0.354348361
   7462, -0.404864848, -0.362175673
   7463, -0.413513511, -0.370002955
   7464, -0.422162145, -0.377830237
   7465, -0.430810809, -0.385657549
   7466, -0.439459443, -0.393484831
   7467, -0.448108107, -0.401312113
   7468, -0.456756741, -0.409139425
   7469, -0.465405405, -0.416966707
   7470, -0.474054039, -0.424793988
   7471, -0.482702702,  -0.43262127
   7472, -0.491351336, -0.440448582
   7473, -0.0831201673, -0.0749162957
   7474, -0.0918051675, -0.0830538124
   7475,  -0.10049016, -0.0911913365
   7476, -0.109175161, -0.0993288532
   7477, -0.117860153, -0.107466377
   7478, -0.126545146, -0.115603894
   7479, -0.135230154, -0.123741411
   7480, -0.143915147, -0.131878927
   7481, -0.152600139, -0.140016451
   7482, -0.161285132, -0.148153976
   7483,  -0.16997014,   -0.1562915
   7484, -0.178655133, -0.164429009
   7485, -0.187340125, -0.172566533
   7486, -0.196025118, -0.180704057
   7487, -0.204710126, -0.188841566
   7488, -0.213395119, -0.196979091
   7489, -0.222080112, -0.205116615
   7490, -0.230765104, -0.213254124
   7491, -0.239450112, -0.221391648
   7492, -0.248135105, -0.229529172
   7493, -0.256820112, -0.237666696
   7494, -0.265505105, -0.245804206
   7495, -0.274190098, -0.253941715
   7496, -0.282875091, -0.262079239
   7497, -0.291560084, -0.270216763
   7498, -0.300245076, -0.278354287
   7499, -0.308930069, -0.286491811
   7500, -0.317615062, -0.294629335
   7501, -0.326300085,  -0.30276686
   7502, -0.334985077, -0.310904354
   7503,  -0.34367007, -0.319041878
   7504, -0.352355063, -0.327179402
   7505, -0.361040056, -0.335316926
   7506, -0.369725049,  -0.34345445
   7507, -0.378410041, -0.351591974
   7508, -0.387095034, -0.359729499
   7509, -0.395780057, -0.367866993
   7510,  -0.40446505, -0.376004517
   7511, -0.413150042, -0.384142041
   7512, -0.421835035, -0.392279565
   7513, -0.430520028, -0.400417089
   7514, -0.439205021, -0.408554614
   7515, -0.447890013, -0.416692138
   7516, -0.456575006, -0.424829632
   7517, -0.465260029, -0.432967156
   7518, -0.473945022,  -0.44110468
   7519, -0.482630014, -0.449242204
   7520, -0.491315007, -0.457379729
   7521, -0.0813220069, -0.0772186965
   7522, -0.0900444686, -0.0856674463
   7523, -0.098766923, -0.0941161886
   7524, -0.107489385, -0.102564938
   7525, -0.116211839, -0.111013688
   7526, -0.124934301, -0.119462438
   7527, -0.133656755,  -0.12791118
   7528, -0.142379209,  -0.13635993
   7529, -0.151101679,  -0.14480868
   7530, -0.159824133,  -0.15325743
   7531, -0.168546587, -0.161706179
   7532, -0.177269042, -0.170154929
   7533, -0.185991511, -0.178603679
   7534, -0.194713965, -0.187052429
   7535, -0.203436419, -0.195501179
   7536, -0.212158874, -0.203949928
   7537, -0.220881343, -0.212398663
   7538, -0.229603797, -0.220847413
   7539, -0.238326252, -0.229296163
   7540, -0.247048706, -0.237744913
   7541,  -0.25577116, -0.246193662
   7542, -0.264493614, -0.254642427
   7543, -0.273216099, -0.263091147
   7544, -0.281938553, -0.271539897
   7545, -0.290661007, -0.279988647
   7546, -0.299383461, -0.288437396
   7547, -0.308105916, -0.296886146
   7548,  -0.31682837, -0.305334896
   7549, -0.325550824, -0.313783646
   7550, -0.334273309, -0.322232395
   7551, -0.342995763, -0.330681145
   7552, -0.351718217, -0.339129895
   7553, -0.360440671, -0.347578645
   7554, -0.369163126, -0.356027395
   7555,  -0.37788558, -0.364476144
   7556, -0.386608034, -0.372924894
   7557, -0.395330489, -0.381373644
   7558, -0.404052973, -0.389822394
   7559, -0.412775427, -0.398271143
   7560, -0.421497881, -0.406719893
   7561, -0.430220336, -0.415168643
   7562,  -0.43894279, -0.423617393
   7563, -0.447665244, -0.432066143
   7564, -0.456387699, -0.440514892
   7565, -0.465110153, -0.448963612
   7566, -0.473832637, -0.457412362
   7567, -0.482555091, -0.465861112
   7568, -0.491277546, -0.474309862
   7569,  0.491835982, -0.0169447791
   7570,  0.483671963, -0.0166481771
   7571,  0.475507945, -0.0163515769
   7572,  0.467343956, -0.0160549767
   7573,  0.459179938, -0.0157583747
   7574,  0.451015919, -0.0154617745
   7575,  0.442851901, -0.0151651734
   7576,  0.434687883, -0.0148685724
   7577,  0.426523864, -0.0145719722
   7578,  0.418359876, -0.0142753711
   7579,  0.410195857,  -0.01397877
   7580,  0.402031839, -0.0136821689
   7581,  0.393867821, -0.0133855687
   7582,  0.385703802, -0.0130889677
   7583,  0.377539784, -0.0127923666
   7584,  0.369375795, -0.0124957664
   7585,  0.361211777, -0.0121991653
   7586,  0.353047758, -0.0119025642
   7587,   0.34488374, -0.0116059631
   7588,  0.336719722, -0.0113093629
   7589,  0.328555703, -0.0110127619
   7590,  0.320391685, -0.0107161608
   7591,  0.312227696, -0.0104195606
   7592,  0.304063678, -0.0101229595
   7593,  0.295899659, -0.00982635841
   7594,  0.287735641, -0.00952975731
   7595,  0.279571623, -0.00923315715
   7596,  0.271407604, -0.00893655606
   7597,  0.263243616, -0.00863995496
   7598,  0.255079597, -0.00834335387
   7599,  0.246915579, -0.0080467537
   7600,   0.23875156, -0.00775015261
   7601,  0.230587542, -0.00745355198
   7602,  0.222423539, -0.00715695089
   7603,   0.21425952, -0.00686035026
   7604,  0.206095502, -0.00656374916
   7605,  0.197931498, -0.00626714854
   7606,   0.18976748, -0.00597054744
   7607,  0.181603462, -0.00567394681
   7608,  0.173439458, -0.00537734618
   7609,   0.16527544, -0.00508074509
   7610,  0.157111421, -0.00478414446
   7611,  0.148947418, -0.00448754337
   7612,  0.140783399, -0.00419094274
   7613,  0.132619381, -0.00389434188
   7614,   0.12445537, -0.00359774102
   7615,  0.116291359, -0.00330114015
   7616,  0.108127341, -0.00300453929
   7617,  0.491833746, -0.0338895172
   7618,  0.483667493, -0.0332962759
   7619,  0.475501239, -0.0327030309
   7620,  0.467334956, -0.0321097896
   7621,  0.459168702, -0.0315165482
   7622,  0.451002449, -0.0309233051
   7623,  0.442836195, -0.0303300638
   7624,  0.434669942, -0.0297368206
   7625,  0.426503688, -0.0291435793
   7626,  0.418337405, -0.0285503361
   7627,  0.410171151, -0.0279570948
   7628,  0.402004898, -0.0273638517
   7629,  0.393838644, -0.0267706104
   7630,   0.38567239, -0.0261773672
   7631,  0.377506137, -0.0255841259
   7632,  0.369339854, -0.0249908827
   7633,    0.3611736, -0.0243976414
   7634,  0.353007346, -0.0238043983
   7635,  0.344841093, -0.0232111569
   7636,  0.336674839, -0.0226179138
   7637,  0.328508586, -0.0220246725
   7638,  0.320342302, -0.0214314293
   7639,  0.312176049, -0.020838188
   7640,  0.304009795, -0.0202449467
   7641,  0.295843542, -0.0196517035
   7642,  0.287677288, -0.0190584622
   7643,  0.279511034, -0.0184652191
   7644,  0.271344781, -0.0178719778
   7645,  0.263178498, -0.0172787346
   7646,  0.255012244, -0.0166854933
   7647,   0.24684599, -0.0160922501
   7648,  0.238679737, -0.0154990079
   7649,  0.230513468, -0.0149057657
   7650,  0.222347215, -0.0143125234
   7651,  0.214180961, -0.0137192821
   7652,  0.206014693, -0.0131260399
   7653,  0.197848439, -0.0125327976
   7654,  0.189682186, -0.0119395554
   7655,  0.181515932, -0.0113463132
   7656,  0.173349664, -0.0107530709
   7657,   0.16518341, -0.0101598287
   7658,  0.157017156, -0.00956658646
   7659,  0.148850888, -0.00897334423
   7660,  0.140684634, -0.00838010199
   7661,  0.132518381, -0.00778685976
   7662,   0.12435212, -0.00719361752
   7663,  0.116185859, -0.00660037529
   7664,  0.108019598, -0.00600713305
   7665,  0.491829991, -0.0508341715
   7666,  0.483660012, -0.0499442071
   7667,  0.475490004, -0.0490542427
   7668,  0.467319995, -0.0481642783
   7669,  0.459150016, -0.0472743139
   7670,  0.450980008, -0.0463843495
   7671,  0.442810029, -0.0454943851
   7672,   0.43464002, -0.0446044207
   7673,  0.426470011, -0.0437144563
   7674,  0.418300033, -0.0428244919
   7675,  0.410130024, -0.0419345275
   7676,  0.401960015, -0.0410445631
   7677,  0.393790036, -0.0401545987
   7678,  0.385620028, -0.0392646343
   7679,  0.377450049, -0.0383746698
   7680,   0.36928004, -0.0374847054
   7681,  0.361110032, -0.036594741
   7682,  0.352940053, -0.0357047766
   7683,  0.344770044, -0.0348148122
   7684,  0.336600035, -0.0339248441
   7685,  0.328430057, -0.0330348797
   7686,  0.320260048, -0.0321449153
   7687,  0.312090069, -0.0312549509
   7688,   0.30392006, -0.0303649884
   7689,  0.295750052, -0.0294750221
   7690,  0.287580073, -0.0285850577
   7691,  0.279410064, -0.0276950933
   7692,  0.271240056, -0.0268051289
   7693,  0.263070077, -0.0259151645
   7694,  0.254900068, -0.0250252001
   7695,  0.246730074, -0.0241352357
   7696,  0.238560081, -0.0232452713
   7697,  0.230390087, -0.0223553069
   7698,  0.222220078, -0.0214653406
   7699,  0.214050084, -0.0205753762
   7700,  0.205880091, -0.0196854118
   7701,  0.197710097, -0.0187954474
   7702,  0.189540088, -0.017905483
   7703,  0.181370094, -0.0170155186
   7704,  0.173200101, -0.0161255542
   7705,  0.165030107, -0.0152355889
   7706,  0.156860098, -0.0143456245
   7707,  0.148690104, -0.0134556601
   7708,  0.140520111, -0.0125656957
   7709,  0.132350102, -0.0116757313
   7710,  0.124180108, -0.0107857659
   7711,  0.116010115, -0.00989580154
   7712,  0.107840113, -0.00900583714
   7713,  0.491824776, -0.0677787066
   7714,  0.483649552, -0.0665919036
   7715,  0.475474328, -0.0654050931
   7716,  0.467299074, -0.0642182827
   7717,   0.45912385, -0.0630314723
   7718,  0.450948626, -0.0618446656
   7719,  0.442773402, -0.0606578588
   7720,  0.434598178, -0.0594710484
   7721,  0.426422954, -0.0582842417
   7722,    0.4182477, -0.0570974313
   7723,  0.410072476, -0.0559106246
   7724,  0.401897252, -0.0547238141
   7725,  0.393722028, -0.0535370074
   7726,  0.385546803, -0.052350197
   7727,  0.377371579, -0.0511633903
   7728,  0.369196355, -0.0499765798
   7729,  0.361021101, -0.0487897731
   7730,  0.352845877, -0.0476029664
   7731,  0.344670653, -0.046416156
   7732,  0.336495429, -0.0452293493
   7733,  0.328320205, -0.0440425389
   7734,  0.320144981, -0.0428557321
   7735,  0.311969727, -0.0416689217
   7736,  0.303794503, -0.040482115
   7737,  0.295619279, -0.0392953046
   7738,  0.287444055, -0.0381084979
   7739,  0.279268831, -0.0369216874
   7740,  0.271093607, -0.0357348807
   7741,  0.262918383, -0.0345480703
   7742,  0.254743129, -0.0333612636
   7743,  0.246567905, -0.0321744531
   7744,  0.238392681, -0.0309876464
   7745,  0.230217457, -0.0298008379
   7746,  0.222042233, -0.0286140293
   7747,  0.213866994, -0.0274272207
   7748,   0.20569177, -0.0262404121
   7749,  0.197516546, -0.0250536036
   7750,  0.189341307, -0.023866795
   7751,  0.181166083, -0.0226799864
   7752,  0.172990859, -0.0214931779
   7753,   0.16481562, -0.0203063693
   7754,  0.156640396, -0.0191195607
   7755,  0.148465171, -0.0179327521
   7756,  0.140289932, -0.0167459436
   7757,  0.132114708, -0.0155591359
   7758,  0.123939484, -0.0143723274
   7759,  0.115764253, -0.0131855188
   7760,  0.107589021, -0.0119987102
   7761,  0.491818041, -0.0847230852
   7762,  0.483636111, -0.0832392648
   7763,  0.475454152, -0.0817554519
   7764,  0.467272222, -0.0802716389
   7765,  0.459090263, -0.078787826
   7766,  0.450908303, -0.0773040131
   7767,  0.442726374, -0.0758202001
   7768,  0.434544414, -0.0743363798
   7769,  0.426362485, -0.0728525668
   7770,  0.418180525, -0.0713687539
   7771,  0.409998566, -0.069884941
   7772,  0.401816636, -0.0684011281
   7773,  0.393634677, -0.0669173151
   7774,  0.385452718, -0.0654334947
   7775,  0.377270788, -0.0639496818
   7776,  0.369088829, -0.0624658689
   7777,  0.360906899, -0.060982056
   7778,   0.35272494, -0.059498243
   7779,   0.34454298, -0.0580144264
   7780,  0.336361051, -0.0565306135
   7781,  0.328179091, -0.0550467968
   7782,  0.319997162, -0.0535629839
   7783,  0.311815202, -0.0520791709
   7784,  0.303633243, -0.0505953543
   7785,  0.295451313, -0.0491115414
   7786,  0.287269354, -0.0476277284
   7787,  0.279087424, -0.0461439118
   7788,  0.270905465, -0.0446600989
   7789,  0.262723505, -0.0431762859
   7790,  0.254541576, -0.0416924693
   7791,  0.246359617, -0.0402086563
   7792,  0.238177672, -0.0387248434
   7793,  0.229995728, -0.0372410268
   7794,  0.221813783, -0.0357572138
   7795,  0.213631824, -0.0342734009
   7796,  0.205449879, -0.0327895842
   7797,  0.197267935, -0.0313057713
   7798,   0.18908599, -0.0298219565
   7799,  0.180904031, -0.0283381436
   7800,  0.172722086, -0.0268543288
   7801,  0.164540142, -0.025370514
   7802,  0.156358197, -0.0238867011
   7803,  0.148176253, -0.0224028863
   7804,  0.139994293, -0.0209190715
   7805,  0.131812349, -0.0194352586
   7806,  0.123630404, -0.0179514438
   7807,  0.115448453, -0.016467629
   7808,  0.107266508, -0.0149838151
   7809,  0.491809845, -0.101667255
   7810,   0.48361969, -0.0998862311
   7811,  0.475429565, -0.0981052071
   7812,   0.46723941, -0.0963241905
   7813,  0.459049255, -0.0945431665
   7814,    0.4508591, -0.0927621424
   7815,  0.442668945, -0.0909811258
   7816,   0.43447879, -0.0892001018
   7817,  0.426288664, -0.0874190778
   7818,  0.418098509, -0.0856380537
   7819,  0.409908354, -0.0838570371
   7820,  0.401718199, -0.0820760131
   7821,  0.393528044, -0.080294989
   7822,  0.385337889, -0.078513965
   7823,  0.377147764, -0.0767329484
   7824,  0.368957609, -0.0749519244
   7825,  0.360767454, -0.0731709003
   7826,  0.352577299, -0.0713898838
   7827,  0.344387144, -0.0696088597
   7828,  0.336196989, -0.0678278357
   7829,  0.328006864, -0.0660468116
   7830,  0.319816709, -0.0642657951
   7831,  0.311626554, -0.062484771
   7832,  0.303436399, -0.060703747
   7833,  0.295246243, -0.0589227267
   7834,  0.287056088, -0.0571417063
   7835,  0.278865963, -0.0553606823
   7836,  0.270675808, -0.053579662
   7837,  0.262485653, -0.051798638
   7838,  0.254295498, -0.0500176176
   7839,  0.246105358, -0.0482365936
   7840,  0.237915203, -0.0464555733
   7841,  0.229725048, -0.0446745493
   7842,  0.221534908, -0.0428935289
   7843,  0.213344753, -0.0411125086
   7844,  0.205154598, -0.0393314846
   7845,  0.196964458, -0.0375504643
   7846,  0.188774303, -0.0357694402
   7847,  0.180584148, -0.0339884199
   7848,  0.172394007, -0.0322073959
   7849,  0.164203852, -0.0304263756
   7850,  0.156013697, -0.0286453534
   7851,  0.147823557, -0.0268643312
   7852,  0.139633402, -0.025083309
   7853,  0.131443247, -0.0233022869
   7854,    0.1232531, -0.0215212647
   7855,  0.115062952, -0.0197402444
   7856,  0.106872804, -0.0179592222
   7857,  0.491800159, -0.118611187
   7858,  0.483600348, -0.116532713
   7859,  0.475400507,  -0.11445424
   7860,  0.467200696, -0.112375766
   7861,  0.459000856, -0.110297292
   7862,  0.450801015, -0.108218826
   7863,  0.442601204, -0.106140353
   7864,  0.434401363, -0.104061879
   7865,  0.426201522, -0.101983406
   7866,  0.418001711, -0.0999049395
   7867,  0.409801871, -0.097826466
   7868,   0.40160206, -0.0957479924
   7869,  0.393402219, -0.0936695188
   7870,  0.385202378, -0.0915910453
   7871,  0.377002567, -0.0895125791
   7872,  0.368802726, -0.0874341056
   7873,  0.360602915, -0.085355632
   7874,  0.352403075, -0.0832771584
   7875,  0.344203234, -0.0811986923
   7876,  0.336003423, -0.0791202188
   7877,  0.327803582, -0.0770417452
   7878,  0.319603771, -0.0749632716
   7879,   0.31140393, -0.072884798
   7880,  0.303204089, -0.0708063319
   7881,  0.295004278, -0.0687278584
   7882,  0.286804438, -0.0666493848
   7883,  0.278604597, -0.0645709112
   7884,  0.270404786, -0.0624924414
   7885,  0.262204945, -0.0604139715
   7886,  0.254005134, -0.058335498
   7887,  0.245805293, -0.0562570281
   7888,  0.237605467, -0.0541785546
   7889,  0.229405642, -0.052100081
   7890,  0.221205801, -0.0500216112
   7891,  0.213005975, -0.0479431376
   7892,  0.204806149, -0.0458646677
   7893,  0.196606323, -0.0437861942
   7894,  0.188406482, -0.0417077243
   7895,  0.180206656, -0.0396292508
   7896,  0.172006831, -0.0375507809
   7897,  0.163807005, -0.0354723074
   7898,  0.155607179, -0.0333938338
   7899,  0.147407338, -0.0313153639
   7900,  0.139207512, -0.0292368922
   7901,  0.131007686, -0.0271584205
   7902,  0.122807853, -0.0250799488
   7903,  0.114608027, -0.0230014753
   7904,  0.106408201, -0.0209230036
   7905,  0.491789013, -0.135554835
   7906,  0.483578056, -0.133178622
   7907,  0.475367069, -0.130802423
   7908,  0.467156082, -0.128426224
   7909,  0.458945096,  -0.12605001
   7910,  0.450734138, -0.123673812
   7911,  0.442523152, -0.121297605
   7912,  0.434312165, -0.118921407
   7913,  0.426101208,   -0.1165452
   7914,  0.417890221, -0.114168994
   7915,  0.409679234, -0.111792795
   7916,  0.401468247, -0.109416589
   7917,   0.39325729, -0.107040383
   7918,  0.385046303, -0.104664177
   7919,  0.376835316, -0.102287978
   7920,  0.368624359, -0.0999117717
   7921,  0.360413373, -0.0975355655
   7922,  0.352202386, -0.0951593667
   7923,  0.343991399, -0.0927831605
   7924,  0.335780442, -0.0904069543
   7925,  0.327569455, -0.0880307555
   7926,  0.319358468, -0.0856545493
   7927,  0.311147481, -0.0832783431
   7928,  0.302936524, -0.0809021443
   7929,  0.294725537, -0.0785259381
   7930,   0.28651455, -0.0761497319
   7931,  0.278303593, -0.0737735331
   7932,  0.270092607, -0.0713973269
   7933,   0.26188162, -0.0690211207
   7934,  0.253670633, -0.0666449144
   7935,  0.245459661, -0.0642687157
   7936,  0.237248689, -0.0618925095
   7937,  0.229037717, -0.059516307
   7938,   0.22082673, -0.0571401007
   7939,  0.212615758, -0.0547638983
   7940,  0.204404771, -0.0523876958
   7941,  0.196193799, -0.0500114895
   7942,  0.187982813, -0.047635287
   7943,  0.179771841, -0.0452590846
   7944,  0.171560869, -0.0428828783
   7945,  0.163349882, -0.0405066758
   7946,   0.15513891, -0.0381304696
   7947,  0.146927923, -0.0357542671
   7948,  0.138716951, -0.0333780646
   7949,  0.130505964, -0.0310018603
   7950,  0.122294992, -0.0286256559
   7951,  0.114084013, -0.0262494516
   7952,  0.105873033, -0.0238732472
   7953,  0.491776407, -0.152498156
   7954,  0.483552814, -0.149823904
   7955,   0.47532922, -0.147149637
   7956,  0.467105657, -0.144475386
   7957,  0.458882064, -0.141801119
   7958,   0.45065847, -0.139126867
   7959,  0.442434877, -0.136452615
   7960,  0.434211284, -0.133778349
   7961,  0.425987691, -0.131104097
   7962,  0.417764097,  -0.12842983
   7963,  0.409540504, -0.125755578
   7964,  0.401316941, -0.123081319
   7965,  0.393093348, -0.120407067
   7966,  0.384869754, -0.117732808
   7967,  0.376646161, -0.115058549
   7968,  0.368422568,  -0.11238429
   7969,  0.360198975,  -0.10971003
   7970,  0.351975381, -0.107035778
   7971,  0.343751788, -0.104361519
   7972,  0.335528225,  -0.10168726
   7973,  0.327304631, -0.0990130007
   7974,  0.319081038, -0.0963387489
   7975,  0.310857445, -0.0936644897
   7976,  0.302633852, -0.0909902304
   7977,  0.294410259, -0.0883159712
   7978,  0.286186665, -0.085641712
   7979,  0.277963072, -0.0829674602
   7980,  0.269739509, -0.0802932009
   7981,  0.261515915, -0.0776189417
   7982,  0.253292322, -0.0749446824
   7983,  0.245068729, -0.0722704232
   7984,  0.236845136, -0.0695961714
   7985,  0.228621542, -0.0669219121
   7986,  0.220397964, -0.0642476529
   7987,  0.212174371, -0.0615733974
   7988,  0.203950778, -0.0588991381
   7989,  0.195727184, -0.0562248826
   7990,  0.187503606, -0.0535506234
   7991,  0.179280013, -0.0508763641
   7992,   0.17105642, -0.0482021086
   7993,  0.162832826, -0.0455278493
   7994,  0.154609248, -0.0428535938
   7995,  0.146385655, -0.0401793346
   7996,  0.138162062, -0.0375050791
   7997,  0.129938468, -0.0348308198
   7998,  0.121714883, -0.0321565606
   7999,  0.113491297, -0.029482305
   8000,  0.105267704, -0.0268080477
   8001,   0.49176234, -0.169441119
   8002,   0.48352468, -0.166468441
   8003,   0.47528705, -0.163495779
   8004,   0.46704939, -0.160523102
   8005,   0.45881173, -0.157550424
   8006,   0.45057407, -0.154577762
   8007,   0.44233644, -0.151605085
   8008,   0.43409878, -0.148632407
   8009,   0.42586112, -0.145659745
   8010,   0.41762346, -0.142687067
   8011,   0.40938583,  -0.13971439
   8012,   0.40114817, -0.136741728
   8013,   0.39291051,  -0.13376905
   8014,   0.38467285, -0.130796373
   8015,   0.37643519,  -0.12782371
   8016,   0.36819756, -0.124851033
   8017,    0.3599599, -0.121878356
   8018,   0.35172224, -0.118905686
   8019,  0.343484581, -0.115933016
   8020,   0.33524695, -0.112960339
   8021,   0.32700929, -0.109987669
   8022,  0.318771631, -0.107014999
   8023,  0.310533971, -0.104042321
   8024,   0.30229634, -0.101069652
   8025,  0.294058681, -0.0980969742
   8026,  0.285821021, -0.0951243043
   8027,  0.277583361, -0.0921516344
   8028,  0.269345701, -0.089178957
   8029,  0.261108071, -0.0862062871
   8030,  0.252870411, -0.0832336172
   8031,  0.244632751, -0.0802609399
   8032,  0.236395106,  -0.07728827
   8033,  0.228157446, -0.0743155926
   8034,  0.219919801, -0.0713429227
   8035,  0.211682141, -0.0683702528
   8036,  0.203444496, -0.0653975755
   8037,  0.195206836, -0.0624249056
   8038,  0.186969176, -0.059452232
   8039,  0.178731531, -0.0564795621
   8040,  0.170493871, -0.0535068884
   8041,  0.162256226, -0.0505342148
   8042,  0.154018566, -0.0475615412
   8043,  0.145780921, -0.0445888713
   8044,  0.137543261, -0.0416161977
   8045,  0.129305616, -0.0386435241
   8046,  0.121067956, -0.0356708504
   8047,  0.112830304, -0.0326981805
   8048,  0.104592651, -0.0297255069
   8049,  0.491746843,  -0.18638368
   8050,  0.483493686, -0.183112189
   8051,  0.475240529, -0.179840714
   8052,  0.466987371, -0.176569223
   8053,  0.458734214, -0.173297733
   8054,  0.450481057, -0.170026243
   8055,    0.4422279, -0.166754752
   8056,  0.433974743, -0.163483262
   8057,  0.425721556, -0.160211787
   8058,  0.417468399, -0.156940296
   8059,  0.409215242, -0.153668806
   8060,  0.400962085, -0.150397316
   8061,  0.392708927, -0.147125825
   8062,   0.38445577, -0.143854335
   8063,  0.376202613, -0.140582845
   8064,  0.367949456, -0.137311369
   8065,  0.359696299, -0.134039879
   8066,  0.351443142, -0.130768389
   8067,  0.343189985, -0.127496898
   8068,  0.334936827, -0.124225408
   8069,   0.32668367, -0.120953925
   8070,  0.318430513, -0.117682435
   8071,  0.310177356, -0.114410944
   8072,  0.301924199, -0.111139461
   8073,  0.293671042, -0.107867971
   8074,  0.285417855, -0.104596481
   8075,  0.277164698, -0.101324998
   8076,  0.268911541, -0.0980535075
   8077,  0.260658383, -0.0947820172
   8078,  0.252405226, -0.0915105268
   8079,  0.244152069, -0.088239044
   8080,  0.235898912, -0.0849675536
   8081,  0.227645755, -0.0816960633
   8082,  0.219392598, -0.0784245804
   8083,  0.211139441, -0.0751530901
   8084,  0.202886283, -0.0718815997
   8085,  0.194633126, -0.0686101168
   8086,  0.186379969, -0.0653386265
   8087,  0.178126797, -0.0620671362
   8088,   0.16987364, -0.0587956496
   8089,  0.161620483, -0.0555241629
   8090,  0.153367326, -0.0522526726
   8091,  0.145114169, -0.048981186
   8092,  0.136861011, -0.0457096994
   8093,  0.128607854, -0.0424382091
   8094,   0.12035469, -0.0391667224
   8095,  0.112101533, -0.0358952321
   8096,  0.103848375, -0.0326237455
   8097,  0.491729915, -0.203325808
   8098,    0.4834598, -0.199755073
   8099,  0.475189716, -0.196184322
   8100,  0.466919631, -0.192613587
   8101,  0.458649516, -0.189042836
   8102,  0.450379431, -0.185472101
   8103,  0.442109317, -0.181901351
   8104,  0.433839232, -0.178330615
   8105,  0.425569147, -0.174759865
   8106,  0.417299032, -0.171189129
   8107,  0.409028947, -0.167618379
   8108,  0.400758862, -0.164047644
   8109,  0.392488748, -0.160476893
   8110,  0.384218663, -0.156906158
   8111,  0.375948578, -0.153335407
   8112,  0.367678463, -0.149764672
   8113,  0.359408379, -0.146193922
   8114,  0.351138294, -0.142623186
   8115,  0.342868179, -0.139052436
   8116,  0.334598094,   -0.1354817
   8117,   0.32632798,  -0.13191095
   8118,  0.318057895, -0.128340214
   8119,   0.30978781, -0.124769464
   8120,  0.301517695, -0.121198721
   8121,   0.29324761, -0.117627978
   8122,  0.284977525, -0.114057235
   8123,  0.276707411, -0.110486493
   8124,  0.268437326,  -0.10691575
   8125,  0.260167241, -0.103345007
   8126,  0.251897126, -0.0997742638
   8127,  0.243627042, -0.0962035209
   8128,  0.235356942, -0.092632778
   8129,  0.227086842, -0.0890620351
   8130,  0.218816757, -0.0854912922
   8131,  0.210546657, -0.0819205493
   8132,  0.202276558, -0.0783498064
   8133,  0.194006458, -0.0747790635
   8134,  0.185736373, -0.0712083206
   8135,  0.177466273, -0.0676375777
   8136,  0.169196174, -0.0640668422
   8137,  0.160926089, -0.0604960956
   8138,  0.152655989, -0.0569253527
   8139,  0.144385889, -0.0533546098
   8140,  0.136115789, -0.0497838669
   8141,  0.127845705, -0.0462131239
   8142,  0.119575605, -0.042642381
   8143,  0.111305505, -0.0390716381
   8144,  0.103035413, -0.0355008952
   8145,  0.491711557,  -0.22026746
   8146,  0.483423084, -0.216396973
   8147,  0.475134641,   -0.2125265
   8148,  0.466846198, -0.208656028
   8149,  0.458557755, -0.204785556
   8150,  0.450269282, -0.200915083
   8151,  0.441980839, -0.197044596
   8152,  0.433692396, -0.193174124
   8153,  0.425403953, -0.189303651
   8154,   0.41711548, -0.185433179
   8155,  0.408827037, -0.181562707
   8156,  0.400538594,  -0.17769222
   8157,   0.39225015, -0.173821747
   8158,  0.383961678, -0.169951275
   8159,  0.375673234, -0.166080803
   8160,  0.367384791, -0.162210315
   8161,  0.359096348, -0.158339843
   8162,  0.350807875, -0.154469371
   8163,  0.342519432, -0.150598899
   8164,  0.334230989, -0.146728426
   8165,  0.325942546, -0.142857939
   8166,  0.317654073, -0.138987467
   8167,   0.30936563, -0.135116994
   8168,  0.301077187, -0.131246522
   8169,  0.292788744,  -0.12737605
   8170,  0.284500271,  -0.12350557
   8171,  0.276211828,  -0.11963509
   8172,  0.267923385, -0.115764618
   8173,  0.259634942, -0.111894138
   8174,  0.251346469, -0.108023666
   8175,  0.243058026, -0.104153186
   8176,  0.234769583, -0.100282714
   8177,  0.226481125, -0.0964122415
   8178,  0.218192682, -0.0925417617
   8179,  0.209904224, -0.0886712894
   8180,  0.201615781, -0.0848008096
   8181,  0.193327323, -0.0809303373
   8182,   0.18503888, -0.0770598575
   8183,  0.176750422, -0.0731893852
   8184,  0.168461978, -0.0693189129
   8185,   0.16017352, -0.0654484332
   8186,  0.151885077, -0.0615779571
   8187,  0.143596619, -0.0577074848
   8188,  0.135308176, -0.0538370088
   8189,  0.127019718, -0.0499665327
   8190,  0.118731268, -0.0460960567
   8191,  0.110442817, -0.0422255807
   8192,  0.102154367, -0.0383551046
   8193,  0.491691798,  -0.23720859
   8194,  0.483383566, -0.233037859
   8195,  0.475075364, -0.228867143
   8196,  0.466767162, -0.224696413
   8197,   0.45845896, -0.220525682
   8198,  0.450150728, -0.216354966
   8199,  0.441842526, -0.212184235
   8200,  0.433534324,  -0.20801352
   8201,  0.425226092, -0.203842789
   8202,   0.41691789, -0.199672073
   8203,  0.408609688, -0.195501342
   8204,  0.400301456, -0.191330612
   8205,  0.391993254, -0.187159896
   8206,  0.383685052, -0.182989165
   8207,   0.37537685, -0.178818449
   8208,  0.367068619, -0.174647719
   8209,  0.358760417, -0.170477003
   8210,  0.350452214, -0.166306272
   8211,  0.342143983, -0.162135541
   8212,  0.333835781, -0.157964826
   8213,  0.325527579, -0.153794095
   8214,  0.317219377, -0.149623379
   8215,  0.308911145, -0.145452648
   8216,  0.300602943, -0.141281918
   8217,  0.292294741, -0.137111202
   8218,  0.283986509, -0.132940471
   8219,  0.275678307, -0.128769755
   8220,  0.267370105, -0.124599025
   8221,  0.259061873, -0.120428301
   8222,  0.250753671, -0.116257578
   8223,  0.242445469, -0.112086855
   8224,  0.234137252, -0.107916132
   8225,   0.22582905, -0.103745408
   8226,  0.217520833, -0.0995746776
   8227,  0.209212616, -0.0954039544
   8228,  0.200904414, -0.0912332311
   8229,  0.192596197, -0.0870625079
   8230,  0.184287995, -0.0828917846
   8231,  0.175979778, -0.0787210613
   8232,  0.167671576, -0.0745503381
   8233,  0.159363359, -0.0703796074
   8234,  0.151055142, -0.0662088841
   8235,   0.14274694, -0.0620381609
   8236,  0.134438723, -0.0578674376
   8237,  0.126130521, -0.0536967143
   8238,  0.117822304, -0.0495259874
   8239,  0.109514095, -0.0453552641
   8240,  0.101205885, -0.0411845408
   8241,  0.491670638, -0.254149169
   8242,  0.483341277, -0.249677628
   8243,  0.475011915, -0.245206103
   8244,  0.466682553, -0.240734577
   8245,  0.458353192, -0.236263052
   8246,   0.45002383, -0.231791526
   8247,  0.441694468, -0.227320001
   8248,  0.433365107, -0.222848475
   8249,  0.425035745, -0.218376949
   8250,  0.416706383, -0.213905424
   8251,  0.408377022, -0.209433883
   8252,   0.40004766, -0.204962358
   8253,  0.391718298, -0.200490832
   8254,  0.383388937, -0.196019307
   8255,  0.375059575, -0.191547781
   8256,  0.366730213, -0.187076256
   8257,  0.358400851,  -0.18260473
   8258,   0.35007149, -0.178133205
   8259,  0.341742128, -0.173661679
   8260,  0.333412766, -0.169190139
   8261,  0.325083405, -0.164718613
   8262,  0.316754043, -0.160247087
   8263,  0.308424681, -0.155775562
   8264,   0.30009532, -0.151304036
   8265,  0.291765958, -0.146832511
   8266,  0.283436596, -0.142360985
   8267,  0.275107235,  -0.13788946
   8268,  0.266777873, -0.133417919
   8269,  0.258448511, -0.128946394
   8270,   0.25011915, -0.124474868
   8271,  0.241789803, -0.120003343
   8272,  0.233460441, -0.115531817
   8273,   0.22513108, -0.111060292
   8274,  0.216801718, -0.106588766
   8275,  0.208472356, -0.102117233
   8276,  0.200142995, -0.0976457074
   8277,  0.191813633, -0.0931741819
   8278,  0.183484271, -0.0887026563
   8279,  0.175154909, -0.0842311233
   8280,  0.166825548, -0.0797595978
   8281,  0.158496186, -0.0752880722
   8282,  0.150166824, -0.0708165467
   8283,  0.141837463, -0.0663450211
   8284,  0.133508101, -0.0618734919
   8285,  0.125178739, -0.0574019626
   8286,  0.116849378, -0.052930437
   8287,  0.108520016, -0.0484589078
   8288,  0.100190654, -0.0439873822
   8289,  0.491648108, -0.271089137
   8290,  0.483296216, -0.266316235
   8291,  0.474944353, -0.261543304
   8292,  0.466592461, -0.256770372
   8293,  0.458240569, -0.251997471
   8294,  0.449888676,  -0.24722454
   8295,  0.441536784, -0.242451623
   8296,  0.433184892, -0.237678692
   8297,   0.42483303, -0.232905775
   8298,  0.416481137, -0.228132859
   8299,  0.408129245, -0.223359928
   8300,  0.399777353, -0.218587011
   8301,  0.391425461, -0.213814095
   8302,  0.383073598, -0.209041163
   8303,  0.374721706, -0.204268247
   8304,  0.366369814,  -0.19949533
   8305,  0.358017921, -0.194722399
   8306,  0.349666029, -0.189949483
   8307,  0.341314137, -0.185176551
   8308,  0.332962275, -0.180403635
   8309,  0.324610382, -0.175630718
   8310,   0.31625849, -0.170857787
   8311,  0.307906598, -0.166084871
   8312,  0.299554706, -0.161311954
   8313,  0.291202813, -0.156539023
   8314,  0.282850951, -0.151766106
   8315,  0.274499059,  -0.14699319
   8316,  0.266147166, -0.142220259
   8317,  0.257795274, -0.137447342
   8318,  0.249443397, -0.132674426
   8319,  0.241091505, -0.127901495
   8320,  0.232739612, -0.123128578
   8321,  0.224387735, -0.118355654
   8322,  0.216035843, -0.113582738
   8323,  0.207683966, -0.108809814
   8324,  0.199332073,  -0.10403689
   8325,  0.190980181, -0.0992639661
   8326,  0.182628304, -0.0944910496
   8327,  0.174276412, -0.0897181258
   8328,  0.165924519, -0.0849452019
   8329,  0.157572642, -0.0801722854
   8330,   0.14922075, -0.0753993616
   8331,  0.140868858, -0.0706264377
   8332,   0.13251698, -0.0658535212
   8333,  0.124165088, -0.0610805973
   8334,  0.115813203, -0.0563076735
   8335,  0.107461318, -0.0515347533
   8336, 0.0991094261, -0.0467618331
   8337,  0.491624236, -0.288028508
   8338,  0.483248472,  -0.28295356
   8339,  0.474872679, -0.277878612
   8340,  0.466496915, -0.272803664
   8341,  0.458121151, -0.267728716
   8342,  0.449745387, -0.262653768
   8343,  0.441369593,  -0.25757885
   8344,  0.432993829, -0.252503902
   8345,  0.424618065, -0.247428954
   8346,  0.416242301, -0.242354006
   8347,  0.407866508, -0.237279058
   8348,  0.399490744, -0.232204109
   8349,   0.39111498, -0.227129176
   8350,  0.382739216, -0.222054228
   8351,  0.374363422,  -0.21697928
   8352,  0.365987659, -0.211904332
   8353,  0.357611895, -0.206829399
   8354,  0.349236131, -0.201754451
   8355,  0.340860367, -0.196679503
   8356,  0.332484573, -0.191604555
   8357,  0.324108809, -0.186529621
   8358,  0.315733045, -0.181454673
   8359,  0.307357281, -0.176379725
   8360,  0.298981488, -0.171304777
   8361,  0.290605724, -0.166229844
   8362,   0.28222996, -0.161154896
   8363,  0.273854196, -0.156079948
   8364,  0.265478402,    -0.151005
   8365,  0.257102638, -0.145930067
   8366,  0.248726875, -0.140855119
   8367,  0.240351096, -0.135780171
   8368,  0.231975332, -0.130705222
   8369,  0.223599553, -0.125630274
   8370,  0.215223789, -0.120555334
   8371,  0.206848025, -0.115480393
   8372,  0.198472247, -0.110405445
   8373,  0.190096483, -0.105330504
   8374,  0.181720704, -0.100255556
   8375,   0.17334494, -0.0951806158
   8376,  0.164969161, -0.0901056677
   8377,  0.156593397, -0.0850307271
   8378,  0.148217618, -0.079955779
   8379,  0.139841855, -0.0748808384
   8380,  0.131466076, -0.0698058903
   8381,  0.123090312, -0.0647309497
   8382,  0.114714541, -0.0596560054
   8383,  0.106338769, -0.054581061
   8384, 0.0979629979, -0.0495061167
   8385,  0.491598994, -0.304967195
   8386,  0.483198017, -0.299589574
   8387,   0.47479701, -0.294211924
   8388,  0.466396004, -0.288834304
   8389,  0.457995027, -0.283456653
   8390,  0.449594021, -0.278079033
   8391,  0.441193014, -0.272701412
   8392,  0.432792038, -0.267323762
   8393,  0.424391031, -0.261946142
   8394,  0.415990055, -0.256568491
   8395,  0.407589048, -0.251190871
   8396,  0.399188042, -0.245813236
   8397,  0.390787065,   -0.2404356
   8398,  0.382386059,  -0.23505798
   8399,  0.373985052, -0.229680344
   8400,  0.365584075, -0.224302709
   8401,  0.357183069, -0.218925074
   8402,  0.348782063, -0.213547453
   8403,  0.340381086, -0.208169818
   8404,  0.331980079, -0.202792183
   8405,  0.323579073, -0.197414547
   8406,  0.315178096, -0.192036912
   8407,   0.30677709, -0.186659291
   8408,  0.298376113, -0.181281656
   8409,  0.289975107, -0.175904021
   8410,    0.2815741, -0.170526385
   8411,  0.273173124,  -0.16514875
   8412,  0.264772117, -0.159771129
   8413,  0.256371111, -0.154393494
   8414,  0.247970119, -0.149015859
   8415,  0.239569128, -0.143638223
   8416,  0.231168136, -0.138260588
   8417,  0.222767144, -0.132882968
   8418,  0.214366138, -0.127505332
   8419,  0.205965146, -0.122127697
   8420,  0.197564155, -0.116750062
   8421,  0.189163148, -0.111372434
   8422,  0.180762157, -0.105994798
   8423,  0.172361165,  -0.10061717
   8424,  0.163960174, -0.095239535
   8425,  0.155559167, -0.0898618996
   8426,  0.147158176, -0.0844842717
   8427,  0.138757184, -0.0791066363
   8428,  0.130356178, -0.0737290084
   8429,  0.121955186, -0.0683513731
   8430,  0.113554195, -0.0629737377
   8431,  0.105153196, -0.0575961098
   8432, 0.0967521966, -0.0522184782
   8433,  0.491572469, -0.321905196
   8434,  0.483144909, -0.316224158
   8435,  0.474717379,  -0.31054315
   8436,  0.466289818, -0.304862112
   8437,  0.457862288, -0.299181104
   8438,  0.449434727, -0.293500066
   8439,  0.441007197, -0.287819058
   8440,  0.432579666,  -0.28213805
   8441,  0.424152106, -0.276457012
   8442,  0.415724576, -0.270776004
   8443,  0.407297015, -0.265094966
   8444,  0.398869485, -0.259413958
   8445,  0.390441924,  -0.25373292
   8446,  0.382014394, -0.248051912
   8447,  0.373586863, -0.242370889
   8448,  0.365159303, -0.236689866
   8449,  0.356731772, -0.231008843
   8450,  0.348304212,  -0.22532782
   8451,  0.339876682, -0.219646797
   8452,  0.331449151, -0.213965774
   8453,  0.323021591, -0.208284765
   8454,   0.31459406, -0.202603742
   8455,    0.3061665, -0.196922719
   8456,  0.297738969, -0.191241696
   8457,  0.289311409, -0.185560673
   8458,  0.280883878,  -0.17987965
   8459,  0.272456348, -0.174198627
   8460,  0.264028788, -0.168517604
   8461,  0.255601257, -0.162836596
   8462,  0.247173712, -0.157155573
   8463,  0.238746166,  -0.15147455
   8464,  0.230318621, -0.145793527
   8465,  0.221891075, -0.140112504
   8466,   0.21346353, -0.134431481
   8467,  0.205035985, -0.128750458
   8468,  0.196608439, -0.123069443
   8469,  0.188180909,  -0.11738842
   8470,  0.179753363, -0.111707397
   8471,  0.171325818, -0.106026374
   8472,  0.162898272, -0.100345358
   8473,  0.154470727, -0.0946643353
   8474,  0.146043181, -0.0889833122
   8475,  0.137615636, -0.0833022892
   8476,  0.129188105, -0.0776212662
   8477,   0.12076056, -0.0719402507
   8478,  0.112333015, -0.0662592277
   8479,  0.103905469, -0.0605782047
   8480, 0.0954779238, -0.0548971854
   8481,  0.491544604, -0.338842452
   8482,  0.483089209, -0.332857281
   8483,  0.474633813,  -0.32687214
   8484,  0.466178417, -0.320886999
   8485,  0.457723022, -0.314901859
   8486,  0.449267626, -0.308916718
   8487,   0.44081226, -0.302931547
   8488,  0.432356864, -0.296946406
   8489,  0.423901469, -0.290961266
   8490,  0.415446073, -0.284976125
   8491,  0.406990677, -0.278990984
   8492,  0.398535281, -0.273005813
   8493,  0.390079886, -0.267020673
   8494,   0.38162449, -0.261035532
   8495,  0.373169094, -0.255050391
   8496,  0.364713699, -0.249065235
   8497,  0.356258303, -0.243080094
   8498,  0.347802907, -0.237094939
   8499,  0.339347512, -0.231109798
   8500,  0.330892116, -0.225124642
   8501,   0.32243675, -0.219139501
   8502,  0.313981354, -0.213154361
   8503,  0.305525959, -0.207169205
   8504,  0.297070563, -0.201184064
   8505,  0.288615167, -0.195198908
   8506,  0.280159771, -0.189213768
   8507,  0.271704376, -0.183228612
   8508,   0.26324898, -0.177243471
   8509,  0.254793584,  -0.17125833
   8510,  0.246338189, -0.165273175
   8511,  0.237882808, -0.159288034
   8512,  0.229427412, -0.153302878
   8513,  0.220972016, -0.147317737
   8514,  0.212516621, -0.141332597
   8515,  0.204061225, -0.135347441
   8516,  0.195605829,   -0.1293623
   8517,  0.187150434, -0.123377152
   8518,  0.178695053, -0.117392004
   8519,  0.170239657, -0.111406855
   8520,  0.161784261, -0.105421707
   8521,  0.153328866, -0.0994365588
   8522,   0.14487347, -0.093451418
   8523,  0.136418074, -0.0874662697
   8524,  0.127962679, -0.0814811215
   8525,   0.11950729, -0.0754959732
   8526,  0.111051895, -0.069510825
   8527,  0.102596506, -0.0635256767
   8528, 0.0941411108, -0.0575405322
   8529,  0.491515487, -0.355778933
   8530,  0.483030945, -0.349488884
   8531,  0.474546432, -0.343198836
   8532,   0.46606189, -0.336908787
   8533,  0.457577378, -0.330618739
   8534,  0.449092835, -0.324328691
   8535,  0.440608323, -0.318038642
   8536,   0.43212378, -0.311748624
   8537,  0.423639268, -0.305458575
   8538,  0.415154725, -0.299168527
   8539,  0.406670213, -0.292878479
   8540,   0.39818567,  -0.28658843
   8541,  0.389701158, -0.280298382
   8542,  0.381216645, -0.274008334
   8543,  0.372732103, -0.267718315
   8544,   0.36424759, -0.261428267
   8545,  0.355763048, -0.255138218
   8546,  0.347278535,  -0.24884817
   8547,  0.338793993, -0.242558122
   8548,   0.33030948, -0.236268073
   8549,  0.321824938,  -0.22997804
   8550,  0.313340425, -0.223687991
   8551,  0.304855883, -0.217397943
   8552,  0.296371371,  -0.21110791
   8553,  0.287886828, -0.204817861
   8554,  0.279402316, -0.198527813
   8555,  0.270917773, -0.192237765
   8556,  0.262433261, -0.185947731
   8557,  0.253948748, -0.179657683
   8558,  0.245464206, -0.173367634
   8559,  0.236979678, -0.167077586
   8560,  0.228495151, -0.160787553
   8561,  0.220010623, -0.154497504
   8562,  0.211526096, -0.148207456
   8563,  0.203041583, -0.141917422
   8564,  0.194557056, -0.135627374
   8565,  0.186072528, -0.129337326
   8566,  0.177588001, -0.123047285
   8567,  0.169103473, -0.116757236
   8568,  0.160618946, -0.110467196
   8569,  0.152134418, -0.104177147
   8570,  0.143649891, -0.0978871062
   8571,  0.135165364, -0.0915970653
   8572,  0.126680836, -0.085307017
   8573,  0.118196316, -0.0790169761
   8574,  0.109711789, -0.0727269277
   8575,  0.101227261, -0.0664368868
   8576, 0.0927427337, -0.0601468422
   8577,  0.491485089, -0.372714609
   8578,  0.482970148, -0.366118848
   8579,  0.474455237, -0.359523088
   8580,  0.465940326, -0.352927357
   8581,  0.457425386, -0.346331596
   8582,  0.448910475, -0.339735866
   8583,  0.440395564, -0.333140105
   8584,  0.431880623, -0.326544374
   8585,  0.423365712, -0.319948614
   8586,  0.414850801, -0.313352853
   8587,   0.40633589, -0.306757122
   8588,   0.39782095, -0.300161362
   8589,  0.389306039, -0.293565631
   8590,  0.380791128,  -0.28696987
   8591,  0.372276187,  -0.28037414
   8592,  0.363761276, -0.273778379
   8593,  0.355246365, -0.267182648
   8594,  0.346731424, -0.260586888
   8595,  0.338216513, -0.253991127
   8596,  0.329701602, -0.247395396
   8597,  0.321186662, -0.240799636
   8598,  0.312671751,  -0.23420389
   8599,   0.30415684, -0.227608144
   8600,  0.295641899, -0.221012399
   8601,  0.287126988, -0.214416653
   8602,  0.278612077, -0.207820907
   8603,  0.270097136, -0.201225162
   8604,  0.261582226, -0.194629416
   8605,  0.253067315, -0.188033655
   8606,  0.244552389,  -0.18143791
   8607,  0.236037463, -0.174842164
   8608,  0.227522552, -0.168246418
   8609,  0.219007626, -0.161650673
   8610,    0.2104927, -0.155054927
   8611,  0.201977789, -0.148459181
   8612,  0.193462864, -0.141863421
   8613,  0.184947938, -0.135267675
   8614,  0.176433027, -0.128671929
   8615,  0.167918101, -0.122076184
   8616,   0.15940319, -0.115480438
   8617,  0.150888264, -0.108884685
   8618,  0.142373338, -0.102288939
   8619,  0.133858427, -0.0956931934
   8620,  0.125343502, -0.0890974477
   8621,  0.116828583, -0.0825016946
   8622,  0.108313657, -0.0759059489
   8623,  0.099798739, -0.0693102032
   8624, 0.0912838206, -0.0627144575
   8625,  0.491453439, -0.389649421
   8626,  0.482906908, -0.382747144
   8627,  0.474360347, -0.375844836
   8628,  0.465813786, -0.368942559
   8629,  0.457267225, -0.362040281
   8630,  0.448720694, -0.355137974
   8631,  0.440174133, -0.348235697
   8632,  0.431627572, -0.341333389
   8633,  0.423081011, -0.334431112
   8634,  0.414534479, -0.327528805
   8635,  0.405987918, -0.320626527
   8636,  0.397441357,  -0.31372422
   8637,  0.388894796, -0.306821942
   8638,  0.380348265, -0.299919635
   8639,  0.371801704, -0.293017358
   8640,  0.363255143,  -0.28611508
   8641,  0.354708582, -0.279212773
   8642,  0.346162051, -0.272310495
   8643,   0.33761549, -0.265408188
   8644,  0.329068929, -0.258505911
   8645,  0.320522368, -0.251603603
   8646,  0.311975837, -0.244701326
   8647,  0.303429276, -0.237799034
   8648,  0.294882715, -0.230896741
   8649,  0.286336154, -0.223994449
   8650,  0.277789623, -0.217092156
   8651,  0.269243062, -0.210189864
   8652,  0.260696501, -0.203287572
   8653,   0.25214994, -0.196385279
   8654,  0.243603393, -0.189482987
   8655,  0.235056847, -0.182580695
   8656,  0.226510286, -0.175678402
   8657,   0.21796374,  -0.16877611
   8658,  0.209417194, -0.161873832
   8659,  0.200870633,  -0.15497154
   8660,  0.192324087, -0.148069248
   8661,  0.183777526, -0.141166955
   8662,   0.17523098, -0.134264663
   8663,  0.166684419,  -0.12736237
   8664,  0.158137873, -0.120460078
   8665,  0.149591312, -0.113557786
   8666,  0.141044766, -0.106655493
   8667,  0.132498205, -0.0997532085
   8668,  0.123951651, -0.0928509161
   8669,  0.115405098, -0.0859486237
   8670,  0.106858544, -0.0790463313
   8671, 0.0983119905, -0.072144039
   8672, 0.0897654369, -0.0652417466
   8673,  0.491420597, -0.406583399
   8674,  0.482841194,  -0.39937368
   8675,  0.474261791, -0.392163992
   8676,  0.465682387, -0.384954274
   8677,  0.457102984, -0.377744555
   8678,  0.448523581, -0.370534867
   8679,  0.439944178, -0.363325149
   8680,  0.431364775, -0.356115431
   8681,  0.422785372, -0.348905742
   8682,  0.414205968, -0.341696024
   8683,  0.405626565, -0.334486306
   8684,  0.397047192, -0.327276617
   8685,  0.388467789, -0.320066899
   8686,  0.379888386, -0.312857181
   8687,  0.371308982, -0.305647492
   8688,  0.362729579, -0.298437774
   8689,  0.354150176, -0.291228086
   8690,  0.345570773, -0.284018368
   8691,   0.33699137, -0.276808649
   8692,  0.328411967, -0.269598961
   8693,  0.319832563, -0.262389243
   8694,   0.31125316, -0.255179524
   8695,  0.302673757, -0.247969821
   8696,  0.294094354, -0.240760118
   8697,  0.285514951, -0.233550414
   8698,  0.276935548, -0.226340696
   8699,  0.268356144, -0.219130993
   8700,  0.259776741,  -0.21192129
   8701,  0.251197338, -0.204711571
   8702,   0.24261795, -0.197501868
   8703,  0.234038547, -0.190292165
   8704,  0.225459144, -0.183082461
   8705,   0.21687974, -0.175872743
   8706,  0.208300337,  -0.16866304
   8707,  0.199720934, -0.161453336
   8708,  0.191141531, -0.154243618
   8709,  0.182562128, -0.147033915
   8710,  0.173982725, -0.139824212
   8711,  0.165403321, -0.132614493
   8712,  0.156823918,  -0.12540479
   8713,  0.148244515, -0.118195087
   8714,  0.139665127, -0.110985376
   8715,  0.131085724, -0.103775665
   8716,  0.122506313, -0.0965659618
   8717,  0.113926917, -0.0893562511
   8718,  0.105347514, -0.0821465477
   8719,  0.096768111, -0.074936837
   8720, 0.0881887078, -0.0677271262
   8721,  0.491386563, -0.423516452
   8722,  0.482773125, -0.415998429
   8723,  0.474159688, -0.408480406
   8724,  0.465546221, -0.400962353
   8725,  0.456932783,  -0.39344433
   8726,  0.448319346, -0.385926306
   8727,  0.439705908, -0.378408283
   8728,  0.431092471,  -0.37089023
   8729,  0.422479033, -0.363372207
   8730,  0.413865566, -0.355854183
   8731,  0.405252129,  -0.34833616
   8732,  0.396638691, -0.340818107
   8733,  0.388025254, -0.333300084
   8734,  0.379411817, -0.325782061
   8735,  0.370798379, -0.318264037
   8736,  0.362184912, -0.310745984
   8737,  0.353571475, -0.303227961
   8738,  0.344958037, -0.295709938
   8739,    0.3363446, -0.288191915
   8740,  0.327731162, -0.280673891
   8741,  0.319117725, -0.273155838
   8742,  0.310504287, -0.265637815
   8743,   0.30189082, -0.258119792
   8744,  0.293277383, -0.250601768
   8745,  0.284663945,  -0.24308373
   8746,  0.276050508, -0.235565692
   8747,  0.267437071, -0.228047669
   8748,  0.258823633, -0.220529631
   8749,  0.250210166, -0.213011608
   8750,  0.241596743, -0.205493569
   8751,  0.232983291, -0.197975546
   8752,  0.224369854, -0.190457508
   8753,  0.215756416, -0.182939485
   8754,  0.207142964, -0.175421447
   8755,  0.198529527, -0.167903423
   8756,  0.189916089,   -0.1603854
   8757,  0.181302637, -0.152867362
   8758,  0.172689199, -0.145349339
   8759,  0.164075762,   -0.1378313
   8760,   0.15546231, -0.130313277
   8761,  0.146848872, -0.122795239
   8762,  0.138235435, -0.115277208
   8763,  0.129621997, -0.107759185
   8764,  0.121008545, -0.100241154
   8765,  0.112395108, -0.0927231237
   8766,  0.103781663, -0.085205093
   8767, 0.0951682255, -0.0776870623
   8768, 0.0865547806, -0.0701690316
   8769,  0.491351336, -0.440448582
   8770,  0.482702702,  -0.43262127
   8771,  0.474054039, -0.424793988
   8772,  0.465405405, -0.416966707
   8773,  0.456756741, -0.409139425
   8774,  0.448108107, -0.401312113
   8775,  0.439459443, -0.393484831
   8776,  0.430810809, -0.385657549
   8777,  0.422162145, -0.377830237
   8778,  0.413513511, -0.370002955
   8779,  0.404864848, -0.362175673
   8780,  0.396216214, -0.354348361
   8781,   0.38756755,  -0.34652108
   8782,  0.378918916, -0.338693798
   8783,  0.370270252, -0.330866516
   8784,  0.361621618, -0.323039204
   8785,  0.352972955, -0.315211922
   8786,  0.344324321,  -0.30738464
   8787,  0.335675657, -0.299557328
   8788,  0.327027023, -0.291730046
   8789,  0.318378359, -0.283902764
   8790,  0.309729725, -0.276075482
   8791,  0.301081061, -0.268248171
   8792,  0.292432427, -0.260420889
   8793,  0.283783764, -0.252593607
   8794,   0.27513513,  -0.24476631
   8795,  0.266486466, -0.236939013
   8796,  0.257837832, -0.229111731
   8797,  0.249189183, -0.221284434
   8798,  0.240540534, -0.213457152
   8799,  0.231891885, -0.205629855
   8800,  0.223243237, -0.197802573
   8801,  0.214594588, -0.189975277
   8802,  0.205945939,  -0.18214798
   8803,   0.19729729, -0.174320698
   8804,  0.188648641, -0.166493401
   8805,  0.179999992, -0.158666119
   8806,  0.171351343, -0.150838822
   8807,  0.162702695,  -0.14301154
   8808,  0.154054046, -0.135184243
   8809,  0.145405397, -0.127356946
   8810,  0.136756748, -0.119529665
   8811,  0.128108099, -0.111702368
   8812,   0.11945945, -0.103875078
   8813,  0.110810801, -0.0960477889
   8814,  0.102162153, -0.0882204995
   8815, 0.0935135037, -0.0803932101
   8816, 0.0848648548, -0.0725659207
   8817,  0.491315007, -0.457379729
   8818,  0.482630014, -0.449242204
   8819,  0.473945022,  -0.44110468
   8820,  0.465260029, -0.432967156
   8821,  0.456575006, -0.424829632
   8822,  0.447890013, -0.416692138
   8823,  0.439205021, -0.408554614
   8824,  0.430520028, -0.400417089
   8825,  0.421835035, -0.392279565
   8826,  0.413150042, -0.384142041
   8827,   0.40446505, -0.376004517
   8828,  0.395780057, -0.367866993
   8829,  0.387095034, -0.359729499
   8830,  0.378410041, -0.351591974
   8831,  0.369725049,  -0.34345445
   8832,  0.361040056, -0.335316926
   8833,  0.352355063, -0.327179402
   8834,   0.34367007, -0.319041878
   8835,  0.334985077, -0.310904354
   8836,  0.326300085,  -0.30276686
   8837,  0.317615062, -0.294629335
   8838,  0.308930069, -0.286491811
   8839,  0.300245076, -0.278354287
   8840,  0.291560084, -0.270216763
   8841,  0.282875091, -0.262079239
   8842,  0.274190098, -0.253941715
   8843,  0.265505105, -0.245804206
   8844,  0.256820112, -0.237666696
   8845,  0.248135105, -0.229529172
   8846,  0.239450112, -0.221391648
   8847,  0.230765104, -0.213254124
   8848,  0.222080112, -0.205116615
   8849,  0.213395119, -0.196979091
   8850,  0.204710126, -0.188841566
   8851,  0.196025118, -0.180704057
   8852,  0.187340125, -0.172566533
   8853,  0.178655133, -0.164429009
   8854,   0.16997014,   -0.1562915
   8855,  0.161285132, -0.148153976
   8856,  0.152600139, -0.140016451
   8857,  0.143915147, -0.131878927
   8858,  0.135230154, -0.123741411
   8859,  0.126545146, -0.115603894
   8860,  0.117860153, -0.107466377
   8861,  0.109175161, -0.0993288532
   8862,   0.10049016, -0.0911913365
   8863, 0.0918051675, -0.0830538124
   8864, 0.0831201673, -0.0749162957
   8865,  0.491277546, -0.474309862
   8866,  0.482555091, -0.465861112
   8867,  0.473832637, -0.457412362
   8868,  0.465110153, -0.448963612
   8869,  0.456387699, -0.440514892
   8870,  0.447665244, -0.432066143
   8871,   0.43894279, -0.423617393
   8872,  0.430220336, -0.415168643
   8873,  0.421497881, -0.406719893
   8874,  0.412775427, -0.398271143
   8875,  0.404052973, -0.389822394
   8876,  0.395330489, -0.381373644
   8877,  0.386608034, -0.372924894
   8878,   0.37788558, -0.364476144
   8879,  0.369163126, -0.356027395
   8880,  0.360440671, -0.347578645
   8881,  0.351718217, -0.339129895
   8882,  0.342995763, -0.330681145
   8883,  0.334273309, -0.322232395
   8884,  0.325550824, -0.313783646
   8885,   0.31682837, -0.305334896
   8886,  0.308105916, -0.296886146
   8887,  0.299383461, -0.288437396
   8888,  0.290661007, -0.279988647
   8889,  0.281938553, -0.271539897
   8890,  0.273216099, -0.263091147
   8891,  0.264493614, -0.254642427
   8892,   0.25577116, -0.246193662
   8893,  0.247048706, -0.237744913
   8894,  0.238326252, -0.229296163
   8895,  0.229603797, -0.220847413
   8896,  0.220881343, -0.212398663
   8897,  0.212158874, -0.203949928
   8898,  0.203436419, -0.195501179
   8899,  0.194713965, -0.187052429
   8900,  0.185991511, -0.178603679
   8901,  0.177269042, -0.170154929
   8902,  0.168546587, -0.161706179
   8903,  0.159824133,  -0.15325743
   8904,  0.151101679,  -0.14480868
   8905,  0.142379209,  -0.13635993
   8906,  0.133656755,  -0.12791118
   8907,  0.124934301, -0.119462438
   8908,  0.116211839, -0.111013688
   8909,  0.107489385, -0.102564938
   8910,  0.098766923, -0.0941161886
   8911, 0.0900444686, -0.0856674463
   8912, 0.0813220069, -0.0772186965
   8913, -0.0169447791, -0.491835982
   8914, -0.0166481771, -0.483671963
   8915, -0.0163515769, -0.475507945
   8916, -0.0160549767, -0.467343956
   8917, -0.0157583747, -0.459179938
   8918, -0.0154617745, -0.451015919
   8919, -0.0151651734, -0.442851901
   8920, -0.0148685724, -0.434687883
   8921, -0.0145719722, -0.426523864
   8922, -0.0142753711, -0.418359876
   8923,  -0.01397877, -0.410195857
   8924, -0.0136821689, -0.402031839
   8925, -0.0133855687, -0.393867821
   8926, -0.0130889677, -0.385703802
   8927, -0.0127923666, -0.377539784
   8928, -0.0124957664, -0.369375795
   8929, -0.0121991653, -0.361211777
   8930, -0.0119025642, -0.353047758
   8931, -0.0116059631,  -0.34488374
   8932, -0.0113093629, -0.336719722
   8933, -0.0110127619, -0.328555703
   8934, -0.0107161608, -0.320391685
   8935, -0.0104195606, -0.312227696
   8936, -0.0101229595, -0.304063678
   8937, -0.00982635841, -0.295899659
   8938, -0.00952975731, -0.287735641
   8939, -0.00923315715, -0.279571623
   8940, -0.00893655606, -0.271407604
   8941, -0.00863995496, -0.263243616
   8942, -0.00834335387, -0.255079597
   8943, -0.0080467537, -0.246915579
   8944, -0.00775015261,  -0.23875156
   8945, -0.00745355198, -0.230587542
   8946, -0.00715695089, -0.222423539
   8947, -0.00686035026,  -0.21425952
   8948, -0.00656374916, -0.206095502
   8949, -0.00626714854, -0.197931498
   8950, -0.00597054744,  -0.18976748
   8951, -0.00567394681, -0.181603462
   8952, -0.00537734618, -0.173439458
   8953, -0.00508074509,  -0.16527544
   8954, -0.00478414446, -0.157111421
   8955, -0.00448754337, -0.148947418
   8956, -0.00419094274, -0.140783399
   8957, -0.00389434188, -0.132619381
   8958, -0.00359774102,  -0.12445537
   8959, -0.00330114015, -0.116291359
   8960, -0.00300453929, -0.108127341
   8961, -0.0338895172, -0.491833746
   8962, -0.0332962759, -0.483667493
   8963, -0.0327030309, -0.475501239
   8964, -0.0321097896, -0.467334956
   8965, -0.0315165482, -0.459168702
   8966, -0.0309233051, -0.451002449
   8967, -0.0303300638, -0.442836195
   8968, -0.0297368206, -0.434669942
   8969, -0.0291435793, -0.426503688
   8970, -0.0285503361, -0.418337405
   8971, -0.0279570948, -0.410171151
   8972, -0.0273638517, -0.402004898
   8973, -0.0267706104, -0.393838644
   8974, -0.0261773672,  -0.38567239
   8975, -0.0255841259, -0.377506137
   8976, -0.0249908827, -0.369339854
   8977, -0.0243976414,   -0.3611736
   8978, -0.0238043983, -0.353007346
   8979, -0.0232111569, -0.344841093
   8980, -0.0226179138, -0.336674839
   8981, -0.0220246725, -0.328508586
   8982, -0.0214314293, -0.320342302
   8983, -0.020838188, -0.312176049
   8984, -0.0202449467, -0.304009795
   8985, -0.0196517035, -0.295843542
   8986, -0.0190584622, -0.287677288
   8987, -0.0184652191, -0.279511034
   8988, -0.0178719778, -0.271344781
   8989, -0.0172787346, -0.263178498
   8990, -0.0166854933, -0.255012244
   8991, -0.0160922501,  -0.24684599
   8992, -0.0154990079, -0.238679737
   8993, -0.0149057657, -0.230513468
   8994, -0.0143125234, -0.222347215
   8995, -0.0137192821, -0.214180961
   8996, -0.0131260399, -0.206014693
   8997, -0.0125327976, -0.197848439
   8998, -0.0119395554, -0.189682186
   8999, -0.0113463132, -0.181515932
   9000, -0.0107530709, -0.173349664
   9001, -0.0101598287,  -0.16518341
   9002, -0.00956658646, -0.157017156
   9003, -0.00897334423, -0.148850888
   9004, -0.00838010199, -0.140684634
   9005, -0.00778685976, -0.132518381
   9006, -0.00719361752,  -0.12435212
   9007, -0.00660037529, -0.116185859
   9008, -0.00600713305, -0.108019598
   9009, -0.0508341715, -0.491829991
   9010, -0.0499442071, -0.483660012
   9011, -0.0490542427, -0.475490004
   9012, -0.0481642783, -0.467319995
   9013, -0.0472743139, -0.459150016
   9014, -0.0463843495, -0.450980008
   9015, -0.0454943851, -0.442810029
   9016, -0.0446044207,  -0.43464002
   9017, -0.0437144563, -0.426470011
   9018, -0.0428244919, -0.418300033
   9019, -0.0419345275, -0.410130024
   9020, -0.0410445631, -0.401960015
   9021, -0.0401545987, -0.393790036
   9022, -0.0392646343, -0.385620028
   9023, -0.0383746698, -0.377450049
   9024, -0.0374847054,  -0.36928004
   9025, -0.036594741, -0.361110032
   9026, -0.0357047766, -0.352940053
   9027, -0.0348148122, -0.344770044
   9028, -0.0339248441, -0.336600035
   9029, -0.0330348797, -0.328430057
   9030, -0.0321449153, -0.320260048
   9031, -0.0312549509, -0.312090069
   9032, -0.0303649884,  -0.30392006
   9033, -0.0294750221, -0.295750052
   9034, -0.0285850577, -0.287580073
   9035, -0.0276950933, -0.279410064
   9036, -0.0268051289, -0.271240056
   9037, -0.0259151645, -0.263070077
   9038, -0.0250252001, -0.254900068
   9039, -0.0241352357, -0.246730074
   9040, -0.0232452713, -0.238560081
   9041, -0.0223553069, -0.230390087
   9042, -0.0214653406, -0.222220078
   9043, -0.0205753762, -0.214050084
   9044, -0.0196854118, -0.205880091
   9045, -0.0187954474, -0.197710097
   9046, -0.017905483, -0.189540088
   9047, -0.0170155186, -0.181370094
   9048, -0.0161255542, -0.173200101
   9049, -0.0152355889, -0.165030107
   9050, -0.0143456245, -0.156860098
   9051, -0.0134556601, -0.148690104
   9052, -0.0125656957, -0.140520111
   9053, -0.0116757313, -0.132350102
   9054, -0.0107857659, -0.124180108
   9055, -0.00989580154, -0.116010115
   9056, -0.00900583714, -0.107840113
   9057, -0.0677787066, -0.491824776
   9058, -0.0665919036, -0.483649552
   9059, -0.0654050931, -0.475474328
   9060, -0.0642182827, -0.467299074
   9061, -0.0630314723,  -0.45912385
   9062, -0.0618446656, -0.450948626
   9063, -0.0606578588, -0.442773402
   9064, -0.0594710484, -0.434598178
   9065, -0.0582842417, -0.426422954
   9066, -0.0570974313,   -0.4182477
   9067, -0.0559106246, -0.410072476
   9068, -0.0547238141, -0.401897252
   9069, -0.0535370074, -0.393722028
   9070, -0.052350197, -0.385546803
   9071, -0.0511633903, -0.377371579
   9072, -0.0499765798, -0.369196355
   9073, -0.0487897731, -0.361021101
   9074, -0.0476029664, -0.352845877
   9075, -0.046416156, -0.344670653
   9076, -0.0452293493, -0.336495429
   9077, -0.0440425389, -0.328320205
   9078, -0.0428557321, -0.320144981
   9079, -0.0416689217, -0.311969727
   9080, -0.040482115, -0.303794503
   9081, -0.0392953046, -0.295619279
   9082, -0.0381084979, -0.287444055
   9083, -0.0369216874, -0.279268831
   9084, -0.0357348807, -0.271093607
   9085, -0.0345480703, -0.262918383
   9086, -0.0333612636, -0.254743129
   9087, -0.0321744531, -0.246567905
   9088, -0.0309876464, -0.238392681
   9089, -0.0298008379, -0.230217457
   9090, -0.0286140293, -0.222042233
   9091, -0.0274272207, -0.213866994
   9092, -0.0262404121,  -0.20569177
   9093, -0.0250536036, -0.197516546
   9094, -0.023866795, -0.189341307
   9095, -0.0226799864, -0.181166083
   9096, -0.0214931779, -0.172990859
   9097, -0.0203063693,  -0.16481562
   9098, -0.0191195607, -0.156640396
   9099, -0.0179327521, -0.148465171
   9100, -0.0167459436, -0.140289932
   9101, -0.0155591359, -0.132114708
   9102, -0.0143723274, -0.123939484
   9103, -0.0131855188, -0.115764253
   9104, -0.0119987102, -0.107589021
   9105, -0.0847230852, -0.491818041
   9106, -0.0832392648, -0.483636111
   9107, -0.0817554519, -0.475454152
   9108, -0.0802716389, -0.467272222
   9109, -0.078787826, -0.459090263
   9110, -0.0773040131, -0.450908303
   9111, -0.0758202001, -0.442726374
   9112, -0.0743363798, -0.434544414
   9113, -0.0728525668, -0.426362485
   9114, -0.0713687539, -0.418180525
   9115, -0.069884941, -0.409998566
   9116, -0.0684011281, -0.401816636
   9117, -0.0669173151, -0.393634677
   9118, -0.0654334947, -0.385452718
   9119, -0.0639496818, -0.377270788
   9120, -0.0624658689, -0.369088829
   9121, -0.060982056, -0.360906899
   9122, -0.059498243,  -0.35272494
   9123, -0.0580144264,  -0.34454298
   9124, -0.0565306135, -0.336361051
   9125, -0.0550467968, -0.328179091
   9126, -0.0535629839, -0.319997162
   9127, -0.0520791709, -0.311815202
   9128, -0.0505953543, -0.303633243
   9129, -0.0491115414, -0.295451313
   9130, -0.0476277284, -0.287269354
   9131, -0.0461439118, -0.279087424
   9132, -0.0446600989, -0.270905465
   9133, -0.0431762859, -0.262723505
   9134, -0.0416924693, -0.254541576
   9135, -0.0402086563, -0.246359617
   9136, -0.0387248434, -0.238177672
   9137, -0.0372410268, -0.229995728
   9138, -0.0357572138, -0.221813783
   9139, -0.0342734009, -0.213631824
   9140, -0.0327895842, -0.205449879
   9141, -0.0313057713, -0.197267935
   9142, -0.0298219565,  -0.18908599
   9143, -0.0283381436, -0.180904031
   9144, -0.0268543288, -0.172722086
   9145, -0.025370514, -0.164540142
   9146, -0.0238867011, -0.156358197
   9147, -0.0224028863, -0.148176253
   9148, -0.0209190715, -0.139994293
   9149, -0.0194352586, -0.131812349
   9150, -0.0179514438, -0.123630404
   9151, -0.016467629, -0.115448453
   9152, -0.0149838151, -0.107266508
   9153, -0.101667255, -0.491809845
   9154, -0.0998862311,  -0.48361969
   9155, -0.0981052071, -0.475429565
   9156, -0.0963241905,  -0.46723941
   9157, -0.0945431665, -0.459049255
   9158, -0.0927621424,   -0.4508591
   9159, -0.0909811258, -0.442668945
   9160, -0.0892001018,  -0.43447879
   9161, -0.0874190778, -0.426288664
   9162, -0.0856380537, -0.418098509
   9163, -0.0838570371, -0.409908354
   9164, -0.0820760131, -0.401718199
   9165, -0.080294989, -0.393528044
   9166, -0.078513965, -0.385337889
   9167, -0.0767329484, -0.377147764
   9168, -0.0749519244, -0.368957609
   9169, -0.0731709003, -0.360767454
   9170, -0.0713898838, -0.352577299
   9171, -0.0696088597, -0.344387144
   9172, -0.0678278357, -0.336196989
   9173, -0.0660468116, -0.328006864
   9174, -0.0642657951, -0.319816709
   9175, -0.062484771, -0.311626554
   9176, -0.060703747, -0.303436399
   9177, -0.0589227267, -0.295246243
   9178, -0.0571417063, -0.287056088
   9179, -0.0553606823, -0.278865963
   9180, -0.053579662, -0.270675808
   9181, -0.051798638, -0.262485653
   9182, -0.0500176176, -0.254295498
   9183, -0.0482365936, -0.246105358
   9184, -0.0464555733, -0.237915203
   9185, -0.0446745493, -0.229725048
   9186, -0.0428935289, -0.221534908
   9187, -0.0411125086, -0.213344753
   9188, -0.0393314846, -0.205154598
   9189, -0.0375504643, -0.196964458
   9190, -0.0357694402, -0.188774303
   9191, -0.0339884199, -0.180584148
   9192, -0.0322073959, -0.172394007
   9193, -0.0304263756, -0.164203852
   9194, -0.0286453534, -0.156013697
   9195, -0.0268643312, -0.147823557
   9196, -0.025083309, -0.139633402
   9197, -0.0233022869, -0.131443247
   9198, -0.0215212647,   -0.1232531
   9199, -0.0197402444, -0.115062952
   9200, -0.0179592222, -0.106872804
   9201, -0.118611187, -0.491800159
   9202, -0.116532713, -0.483600348
   9203,  -0.11445424, -0.475400507
   9204, -0.112375766, -0.467200696
   9205, -0.110297292, -0.459000856
   9206, -0.108218826, -0.450801015
   9207, -0.106140353, -0.442601204
   9208, -0.104061879, -0.434401363
   9209, -0.101983406, -0.426201522
   9210, -0.0999049395, -0.418001711
   9211, -0.097826466, -0.409801871
   9212, -0.0957479924,  -0.40160206
   9213, -0.0936695188, -0.393402219
   9214, -0.0915910453, -0.385202378
   9215, -0.0895125791, -0.377002567
   9216, -0.0874341056, -0.368802726
   9217, -0.085355632, -0.360602915
   9218, -0.0832771584, -0.352403075
   9219, -0.0811986923, -0.344203234
   9220, -0.0791202188, -0.336003423
   9221, -0.0770417452, -0.327803582
   9222, -0.0749632716, -0.319603771
   9223, -0.072884798,  -0.31140393
   9224, -0.0708063319, -0.303204089
   9225, -0.0687278584, -0.295004278
   9226, -0.0666493848, -0.286804438
   9227, -0.0645709112, -0.278604597
   9228, -0.0624924414, -0.270404786
   9229, -0.0604139715, -0.262204945
   9230, -0.058335498, -0.254005134
   9231, -0.0562570281, -0.245805293
   9232, -0.0541785546, -0.237605467
   9233, -0.052100081, -0.229405642
   9234, -0.0500216112, -0.221205801
   9235, -0.0479431376, -0.213005975
   9236, -0.0458646677, -0.204806149
   9237, -0.0437861942, -0.196606323
   9238, -0.0417077243, -0.188406482
   9239, -0.0396292508, -0.180206656
   9240, -0.0375507809, -0.172006831
   9241, -0.0354723074, -0.163807005
   9242, -0.0333938338, -0.155607179
   9243, -0.0313153639, -0.147407338
   9244, -0.0292368922, -0.139207512
   9245, -0.0271584205, -0.131007686
   9246, -0.0250799488, -0.122807853
   9247, -0.0230014753, -0.114608027
   9248, -0.0209230036, -0.106408201
   9249, -0.135554835, -0.491789013
   9250, -0.133178622, -0.483578056
   9251, -0.130802423, -0.475367069
   9252, -0.128426224, -0.467156082
   9253,  -0.12605001, -0.458945096
   9254, -0.123673812, -0.450734138
   9255, -0.121297605, -0.442523152
   9256, -0.118921407, -0.434312165
   9257,   -0.1165452, -0.426101208
   9258, -0.114168994, -0.417890221
   9259, -0.111792795, -0.409679234
   9260, -0.109416589, -0.401468247
   9261, -0.107040383,  -0.39325729
   9262, -0.104664177, -0.385046303
   9263, -0.102287978, -0.376835316
   9264, -0.0999117717, -0.368624359
   9265, -0.0975355655, -0.360413373
   9266, -0.0951593667, -0.352202386
   9267, -0.0927831605, -0.343991399
   9268, -0.0904069543, -0.335780442
   9269, -0.0880307555, -0.327569455
   9270, -0.0856545493, -0.319358468
   9271, -0.0832783431, -0.311147481
   9272, -0.0809021443, -0.302936524
   9273, -0.0785259381, -0.294725537
   9274, -0.0761497319,  -0.28651455
   9275, -0.0737735331, -0.278303593
   9276, -0.0713973269, -0.270092607
   9277, -0.0690211207,  -0.26188162
   9278, -0.0666449144, -0.253670633
   9279, -0.0642687157, -0.245459661
   9280, -0.0618925095, -0.237248689
   9281, -0.059516307, -0.229037717
   9282, -0.0571401007,  -0.22082673
   9283, -0.0547638983, -0.212615758
   9284, -0.0523876958, -0.204404771
   9285, -0.0500114895, -0.196193799
   9286, -0.047635287, -0.187982813
   9287, -0.0452590846, -0.179771841
   9288, -0.0428828783, -0.171560869
   9289, -0.0405066758, -0.163349882
   9290, -0.0381304696,  -0.15513891
   9291, -0.0357542671, -0.146927923
   9292, -0.0333780646, -0.138716951
   9293, -0.0310018603, -0.130505964
   9294, -0.0286256559, -0.122294992
   9295, -0.0262494516, -0.114084013
   9296, -0.0238732472, -0.105873033
   9297, -0.152498156, -0.491776407
   9298, -0.149823904, -0.483552814
   9299, -0.147149637,  -0.47532922
   9300, -0.144475386, -0.467105657
   9301, -0.141801119, -0.458882064
   9302, -0.139126867,  -0.45065847
   9303, -0.136452615, -0.442434877
   9304, -0.133778349, -0.434211284
   9305, -0.131104097, -0.425987691
   9306,  -0.12842983, -0.417764097
   9307, -0.125755578, -0.409540504
   9308, -0.123081319, -0.401316941
   9309, -0.120407067, -0.393093348
   9310, -0.117732808, -0.384869754
   9311, -0.115058549, -0.376646161
   9312,  -0.11238429, -0.368422568
   9313,  -0.10971003, -0.360198975
   9314, -0.107035778, -0.351975381
   9315, -0.104361519, -0.343751788
   9316,  -0.10168726, -0.335528225
   9317, -0.0990130007, -0.327304631
   9318, -0.0963387489, -0.319081038
   9319, -0.0936644897, -0.310857445
   9320, -0.0909902304, -0.302633852
   9321, -0.0883159712, -0.294410259
   9322, -0.085641712, -0.286186665
   9323, -0.0829674602, -0.277963072
   9324, -0.0802932009, -0.269739509
   9325, -0.0776189417, -0.261515915
   9326, -0.0749446824, -0.253292322
   9327, -0.0722704232, -0.245068729
   9328, -0.0695961714, -0.236845136
   9329, -0.0669219121, -0.228621542
   9330, -0.0642476529, -0.220397964
   9331, -0.0615733974, -0.212174371
   9332, -0.0588991381, -0.203950778
   9333, -0.0562248826, -0.195727184
   9334, -0.0535506234, -0.187503606
   9335, -0.0508763641, -0.179280013
   9336, -0.0482021086,  -0.17105642
   9337, -0.0455278493, -0.162832826
   9338, -0.0428535938, -0.154609248
   9339, -0.0401793346, -0.146385655
   9340, -0.0375050791, -0.138162062
   9341, -0.0348308198, -0.129938468
   9342, -0.0321565606, -0.121714883
   9343, -0.029482305, -0.113491297
   9344, -0.0268080477, -0.105267704
   9345, -0.169441119,  -0.49176234
   9346, -0.166468441,  -0.48352468
   9347, -0.163495779,  -0.47528705
   9348, -0.160523102,  -0.46704939
   9349, -0.157550424,  -0.45881173
   9350, -0.154577762,  -0.45057407
   9351, -0.151605085,  -0.44233644
   9352, -0.148632407,  -0.43409878
   9353, -0.145659745,  -0.42586112
   9354, -0.142687067,  -0.41762346
   9355,  -0.13971439,  -0.40938583
   9356, -0.136741728,  -0.40114817
   9357,  -0.13376905,  -0.39291051
   9358, -0.130796373,  -0.38467285
   9359,  -0.12782371,  -0.37643519
   9360, -0.124851033,  -0.36819756
   9361, -0.121878356,   -0.3599599
   9362, -0.118905686,  -0.35172224
   9363, -0.115933016, -0.343484581
   9364, -0.112960339,  -0.33524695
   9365, -0.109987669,  -0.32700929
   9366, -0.107014999, -0.318771631
   9367, -0.104042321, -0.310533971
   9368, -0.101069652,  -0.30229634
   9369, -0.0980969742, -0.294058681
   9370, -0.0951243043, -0.285821021
   9371, -0.0921516344, -0.277583361
   9372, -0.089178957, -0.269345701
   9373, -0.0862062871, -0.261108071
   9374, -0.0832336172, -0.252870411
   9375, -0.0802609399, -0.244632751
   9376,  -0.07728827, -0.236395106
   9377, -0.0743155926, -0.228157446
   9378, -0.0713429227, -0.219919801
   9379, -0.0683702528, -0.211682141
   9380, -0.0653975755, -0.203444496
   9381, -0.0624249056, -0.195206836
   9382, -0.059452232, -0.186969176
   9383, -0.0564795621, -0.178731531
   9384, -0.0535068884, -0.170493871
   9385, -0.0505342148, -0.162256226
   9386, -0.0475615412, -0.154018566
   9387, -0.0445888713, -0.145780921
   9388, -0.0416161977, -0.137543261
   9389, -0.0386435241, -0.129305616
   9390, -0.0356708504, -0.121067956
   9391, -0.0326981805, -0.112830304
   9392, -0.0297255069, -0.104592651
   9393,  -0.18638368, -0.491746843
   9394, -0.183112189, -0.483493686
   9395, -0.179840714, -0.475240529
   9396, -0.176569223, -0.466987371
   9397, -0.173297733, -0.458734214
   9398, -0.170026243, -0.450481057
   9399, -0.166754752,   -0.4422279
   9400, -0.163483262, -0.433974743
   9401, -0.160211787, -0.425721556
   9402, -0.156940296, -0.417468399
   9403, -0.153668806, -0.409215242
   9404, -0.150397316, -0.400962085
   9405, -0.147125825, -0.392708927
   9406, -0.143854335,  -0.38445577
   9407, -0.140582845, -0.376202613
   9408, -0.137311369, -0.367949456
   9409, -0.134039879, -0.359696299
   9410, -0.130768389, -0.351443142
   9411, -0.127496898, -0.343189985
   9412, -0.124225408, -0.334936827
   9413, -0.120953925,  -0.32668367
   9414, -0.117682435, -0.318430513
   9415, -0.114410944, -0.310177356
   9416, -0.111139461, -0.301924199
   9417, -0.107867971, -0.293671042
   9418, -0.104596481, -0.285417855
   9419, -0.101324998, -0.277164698
   9420, -0.0980535075, -0.268911541
   9421, -0.0947820172, -0.260658383
   9422, -0.0915105268, -0.252405226
   9423, -0.088239044, -0.244152069
   9424, -0.0849675536, -0.235898912
   9425, -0.0816960633, -0.227645755
   9426, -0.0784245804, -0.219392598
   9427, -0.0751530901, -0.211139441
   9428, -0.0718815997, -0.202886283
   9429, -0.0686101168, -0.194633126
   9430, -0.0653386265, -0.186379969
   9431, -0.0620671362, -0.178126797
   9432, -0.0587956496,  -0.16987364
   9433, -0.0555241629, -0.161620483
   9434, -0.0522526726, -0.153367326
   9435, -0.048981186, -0.145114169
   9436, -0.0457096994, -0.136861011
   9437, -0.0424382091, -0.128607854
   9438, -0.0391667224,  -0.12035469
   9439, -0.0358952321, -0.112101533
   9440, -0.0326237455, -0.103848375
   9441, -0.203325808, -0.491729915
   9442, -0.199755073,   -0.4834598
   9443, -0.196184322, -0.475189716
   9444, -0.192613587, -0.466919631
   9445, -0.189042836, -0.458649516
   9446, -0.185472101, -0.450379431
   9447, -0.181901351, -0.442109317
   9448, -0.178330615, -0.433839232
   9449, -0.174759865, -0.425569147
   9450, -0.171189129, -0.417299032
   9451, -0.167618379, -0.409028947
   9452, -0.164047644, -0.400758862
   9453, -0.160476893, -0.392488748
   9454, -0.156906158, -0.384218663
   9455, -0.153335407, -0.375948578
   9456, -0.149764672, -0.367678463
   9457, -0.146193922, -0.359408379
   9458, -0.142623186, -0.351138294
   9459, -0.139052436, -0.342868179
   9460,   -0.1354817, -0.334598094
   9461,  -0.13191095,  -0.32632798
   9462, -0.128340214, -0.318057895
   9463, -0.124769464,  -0.30978781
   9464, -0.121198721, -0.301517695
   9465, -0.117627978,  -0.29324761
   9466, -0.114057235, -0.284977525
   9467, -0.110486493, -0.276707411
   9468,  -0.10691575, -0.268437326
   9469, -0.103345007, -0.260167241
   9470, -0.0997742638, -0.251897126
   9471, -0.0962035209, -0.243627042
   9472, -0.092632778, -0.235356942
   9473, -0.0890620351, -0.227086842
   9474, -0.0854912922, -0.218816757
   9475, -0.0819205493, -0.210546657
   9476, -0.0783498064, -0.202276558
   9477, -0.0747790635, -0.194006458
   9478, -0.0712083206, -0.185736373
   9479, -0.0676375777, -0.177466273
   9480, -0.0640668422, -0.169196174
   9481, -0.0604960956, -0.160926089
   9482, -0.0569253527, -0.152655989
   9483, -0.0533546098, -0.144385889
   9484, -0.0497838669, -0.136115789
   9485, -0.0462131239, -0.127845705
   9486, -0.042642381, -0.119575605
   9487, -0.0390716381, -0.111305505
   9488, -0.0355008952, -0.103035413
   9489,  -0.22026746, -0.491711557
   9490, -0.216396973, -0.483423084
   9491,   -0.2125265, -0.475134641
   9492, -0.208656028, -0.466846198
   9493, -0.204785556, -0.458557755
   9494, -0.200915083, -0.450269282
   9495, -0.197044596, -0.441980839
   9496, -0.193174124, -0.433692396
   9497, -0.189303651, -0.425403953
   9498, -0.185433179,  -0.41711548
   9499, -0.181562707, -0.408827037
   9500,  -0.17769222, -0.400538594
   9501, -0.173821747,  -0.39225015
   9502, -0.169951275, -0.383961678
   9503, -0.166080803, -0.375673234
   9504, -0.162210315, -0.367384791
   9505, -0.158339843, -0.359096348
   9506, -0.154469371, -0.350807875
   9507, -0.150598899, -0.342519432
   9508, -0.146728426, -0.334230989
   9509, -0.142857939, -0.325942546
   9510, -0.138987467, -0.317654073
   9511, -0.135116994,  -0.30936563
   9512, -0.131246522, -0.301077187
   9513,  -0.12737605, -0.292788744
   9514,  -0.12350557, -0.284500271
   9515,  -0.11963509, -0.276211828
   9516, -0.115764618, -0.267923385
   9517, -0.111894138, -0.259634942
   9518, -0.108023666, -0.251346469
   9519, -0.104153186, -0.243058026
   9520, -0.100282714, -0.234769583
   9521, -0.0964122415, -0.226481125
   9522, -0.0925417617, -0.218192682
   9523, -0.0886712894, -0.209904224
   9524, -0.0848008096, -0.201615781
   9525, -0.0809303373, -0.193327323
   9526, -0.0770598575,  -0.18503888
   9527, -0.0731893852, -0.176750422
   9528, -0.0693189129, -0.168461978
   9529, -0.0654484332,  -0.16017352
   9530, -0.0615779571, -0.151885077
   9531, -0.0577074848, -0.143596619
   9532, -0.0538370088, -0.135308176
   9533, -0.0499665327, -0.127019718
   9534, -0.0460960567, -0.118731268
   9535, -0.0422255807, -0.110442817
   9536, -0.0383551046, -0.102154367
   9537,  -0.23720859, -0.491691798
   9538, -0.233037859, -0.483383566
   9539, -0.228867143, -0.475075364
   9540, -0.224696413, -0.466767162
   9541, -0.220525682,  -0.45845896
   9542, -0.216354966, -0.450150728
   9543, -0.212184235, -0.441842526
   9544,  -0.20801352, -0.433534324
   9545, -0.203842789, -0.425226092
   9546, -0.199672073,  -0.41691789
   9547, -0.195501342, -0.408609688
   9548, -0.191330612, -0.400301456
   9549, -0.187159896, -0.391993254
   9550, -0.182989165, -0.383685052
   9551, -0.178818449,  -0.37537685
   9552, -0.174647719, -0.367068619
   9553, -0.170477003, -0.358760417
   9554, -0.166306272, -0.350452214
   9555, -0.162135541, -0.342143983
   9556, -0.157964826, -0.333835781
   9557, -0.153794095, -0.325527579
   9558, -0.149623379, -0.317219377
   9559, -0.145452648, -0.308911145
   9560, -0.141281918, -0.300602943
   9561, -0.137111202, -0.292294741
   9562, -0.132940471, -0.283986509
   9563, -0.128769755, -0.275678307
   9564, -0.124599025, -0.267370105
   9565, -0.120428301, -0.259061873
   9566, -0.116257578, -0.250753671
   9567, -0.112086855, -0.242445469
   9568, -0.107916132, -0.234137252
   9569, -0.103745408,  -0.22582905
   9570, -0.0995746776, -0.217520833
   9571, -0.0954039544, -0.209212616
   9572, -0.0912332311, -0.200904414
   9573, -0.0870625079, -0.192596197
   9574, -0.0828917846, -0.184287995
   9575, -0.0787210613, -0.175979778
   9576, -0.0745503381, -0.167671576
   9577, -0.0703796074, -0.159363359
   9578, -0.0662088841, -0.151055142
   9579, -0.0620381609,  -0.14274694
   9580, -0.0578674376, -0.134438723
   9581, -0.0536967143, -0.126130521
   9582, -0.0495259874, -0.117822304
   9583, -0.0453552641, -0.109514095
   9584, -0.0411845408, -0.101205885
   9585, -0.254149169, -0.491670638
   9586, -0.249677628, -0.483341277
   9587, -0.245206103, -0.475011915
   9588, -0.240734577, -0.466682553
   9589, -0.236263052, -0.458353192
   9590, -0.231791526,  -0.45002383
   9591, -0.227320001, -0.441694468
   9592, -0.222848475, -0.433365107
   9593, -0.218376949, -0.425035745
   9594, -0.213905424, -0.416706383
   9595, -0.209433883, -0.408377022
   9596, -0.204962358,  -0.40004766
   9597, -0.200490832, -0.391718298
   9598, -0.196019307, -0.383388937
   9599, -0.191547781, -0.375059575
   9600, -0.187076256, -0.366730213
   9601,  -0.18260473, -0.358400851
   9602, -0.178133205,  -0.35007149
   9603, -0.173661679, -0.341742128
   9604, -0.169190139, -0.333412766
   9605, -0.164718613, -0.325083405
   9606, -0.160247087, -0.316754043
   9607, -0.155775562, -0.308424681
   9608, -0.151304036,  -0.30009532
   9609, -0.146832511, -0.291765958
   9610, -0.142360985, -0.283436596
   9611,  -0.13788946, -0.275107235
   9612, -0.133417919, -0.266777873
   9613, -0.128946394, -0.258448511
   9614, -0.124474868,  -0.25011915
   9615, -0.120003343, -0.241789803
   9616, -0.115531817, -0.233460441
   9617, -0.111060292,  -0.22513108
   9618, -0.106588766, -0.216801718
   9619, -0.102117233, -0.208472356
   9620, -0.0976457074, -0.200142995
   9621, -0.0931741819, -0.191813633
   9622, -0.0887026563, -0.183484271
   9623, -0.0842311233, -0.175154909
   9624, -0.0797595978, -0.166825548
   9625, -0.0752880722, -0.158496186
   9626, -0.0708165467, -0.150166824
   9627, -0.0663450211, -0.141837463
   9628, -0.0618734919, -0.133508101
   9629, -0.0574019626, -0.125178739
   9630, -0.052930437, -0.116849378
   9631, -0.0484589078, -0.108520016
   9632, -0.0439873822, -0.100190654
   9633, -0.271089137, -0.491648108
   9634, -0.266316235, -0.483296216
   9635, -0.261543304, -0.474944353
   9636, -0.256770372, -0.466592461
   9637, -0.251997471, -0.458240569
   9638,  -0.24722454, -0.449888676
   9639, -0.242451623, -0.441536784
   9640, -0.237678692, -0.433184892
   9641, -0.232905775,  -0.42483303
   9642, -0.228132859, -0.416481137
   9643, -0.223359928, -0.408129245
   9644, -0.218587011, -0.399777353
   9645, -0.213814095, -0.391425461
   9646, -0.209041163, -0.383073598
   9647, -0.204268247, -0.374721706
   9648,  -0.19949533, -0.366369814
   9649, -0.194722399, -0.358017921
   9650, -0.189949483, -0.349666029
   9651, -0.185176551, -0.341314137
   9652, -0.180403635, -0.332962275
   9653, -0.175630718, -0.324610382
   9654, -0.170857787,  -0.31625849
   9655, -0.166084871, -0.307906598
   9656, -0.161311954, -0.299554706
   9657, -0.156539023, -0.291202813
   9658, -0.151766106, -0.282850951
   9659,  -0.14699319, -0.274499059
   9660, -0.142220259, -0.266147166
   9661, -0.137447342, -0.257795274
   9662, -0.132674426, -0.249443397
   9663, -0.127901495, -0.241091505
   9664, -0.123128578, -0.232739612
   9665, -0.118355654, -0.224387735
   9666, -0.113582738, -0.216035843
   9667, -0.108809814, -0.207683966
   9668,  -0.10403689, -0.199332073
   9669, -0.0992639661, -0.190980181
   9670, -0.0944910496, -0.182628304
   9671, -0.0897181258, -0.174276412
   9672, -0.0849452019, -0.165924519
   9673, -0.0801722854, -0.157572642
   9674, -0.0753993616,  -0.14922075
   9675, -0.0706264377, -0.140868858
   9676, -0.0658535212,  -0.13251698
   9677, -0.0610805973, -0.124165088
   9678, -0.0563076735, -0.115813203
   9679, -0.0515347533, -0.107461318
   9680, -0.0467618331, -0.0991094261
   9681, -0.288028508, -0.491624236
   9682,  -0.28295356, -0.483248472
   9683, -0.277878612, -0.474872679
   9684, -0.272803664, -0.466496915
   9685, -0.267728716, -0.458121151
   9686, -0.262653768, -0.449745387
   9687,  -0.25757885, -0.441369593
   9688, -0.252503902, -0.432993829
   9689, -0.247428954, -0.424618065
   9690, -0.242354006, -0.416242301
   9691, -0.237279058, -0.407866508
   9692, -0.232204109, -0.399490744
   9693, -0.227129176,  -0.39111498
   9694, -0.222054228, -0.382739216
   9695,  -0.21697928, -0.374363422
   9696, -0.211904332, -0.365987659
   9697, -0.206829399, -0.357611895
   9698, -0.201754451, -0.349236131
   9699, -0.196679503, -0.340860367
   9700, -0.191604555, -0.332484573
   9701, -0.186529621, -0.324108809
   9702, -0.181454673, -0.315733045
   9703, -0.176379725, -0.307357281
   9704, -0.171304777, -0.298981488
   9705, -0.166229844, -0.290605724
   9706, -0.161154896,  -0.28222996
   9707, -0.156079948, -0.273854196
   9708,    -0.151005, -0.265478402
   9709, -0.145930067, -0.257102638
   9710, -0.140855119, -0.248726875
   9711, -0.135780171, -0.240351096
   9712, -0.130705222, -0.231975332
   9713, -0.125630274, -0.223599553
   9714, -0.120555334, -0.215223789
   9715, -0.115480393, -0.206848025
   9716, -0.110405445, -0.198472247
   9717, -0.105330504, -0.190096483
   9718, -0.100255556, -0.181720704
   9719, -0.0951806158,  -0.17334494
   9720, -0.0901056677, -0.164969161
   9721, -0.0850307271, -0.156593397
   9722, -0.079955779, -0.148217618
   9723, -0.0748808384, -0.139841855
   9724, -0.0698058903, -0.131466076
   9725, -0.0647309497, -0.123090312
   9726, -0.0596560054, -0.114714541
   9727, -0.054581061, -0.106338769
   9728, -0.0495061167, -0.0979629979
   9729, -0.304967195, -0.491598994
   9730, -0.299589574, -0.483198017
   9731, -0.294211924,  -0.47479701
   9732, -0.288834304, -0.466396004
   9733, -0.283456653, -0.457995027
   9734, -0.278079033, -0.449594021
   9735, -0.272701412, -0.441193014
   9736, -0.267323762, -0.432792038
   9737, -0.261946142, -0.424391031
   9738, -0.256568491, -0.415990055
   9739, -0.251190871, -0.407589048
   9740, -0.245813236, -0.399188042
   9741,   -0.2404356, -0.390787065
   9742,  -0.23505798, -0.382386059
   9743, -0.229680344, -0.373985052
   9744, -0.224302709, -0.365584075
   9745, -0.218925074, -0.357183069
   9746, -0.213547453, -0.348782063
   9747, -0.208169818, -0.340381086
   9748, -0.202792183, -0.331980079
   9749, -0.197414547, -0.323579073
   9750, -0.192036912, -0.315178096
   9751, -0.186659291,  -0.30677709
   9752, -0.181281656, -0.298376113
   9753, -0.175904021, -0.289975107
   9754, -0.170526385,   -0.2815741
   9755,  -0.16514875, -0.273173124
   9756, -0.159771129, -0.264772117
   9757, -0.154393494, -0.256371111
   9758, -0.149015859, -0.247970119
   9759, -0.143638223, -0.239569128
   9760, -0.138260588, -0.231168136
   9761, -0.132882968, -0.222767144
   9762, -0.127505332, -0.214366138
   9763, -0.122127697, -0.205965146
   9764, -0.116750062, -0.197564155
   9765, -0.111372434, -0.189163148
   9766, -0.105994798, -0.180762157
   9767,  -0.10061717, -0.172361165
   9768, -0.095239535, -0.163960174
   9769, -0.0898618996, -0.155559167
   9770, -0.0844842717, -0.147158176
   9771, -0.0791066363, -0.138757184
   9772, -0.0737290084, -0.130356178
   9773, -0.0683513731, -0.121955186
   9774, -0.0629737377, -0.113554195
   9775, -0.0575961098, -0.105153196
   9776, -0.0522184782, -0.0967521966
   9777, -0.321905196, -0.491572469
   9778, -0.316224158, -0.483144909
   9779,  -0.31054315, -0.474717379
   9780, -0.304862112, -0.466289818
   9781, -0.299181104, -0.457862288
   9782, -0.293500066, -0.449434727
   9783, -0.287819058, -0.441007197
   9784,  -0.28213805, -0.432579666
   9785, -0.276457012, -0.424152106
   9786, -0.270776004, -0.415724576
   9787, -0.265094966, -0.407297015
   9788, -0.259413958, -0.398869485
   9789,  -0.25373292, -0.390441924
   9790, -0.248051912, -0.382014394
   9791, -0.242370889, -0.373586863
   9792, -0.236689866, -0.365159303
   9793, -0.231008843, -0.356731772
   9794,  -0.22532782, -0.348304212
   9795, -0.219646797, -0.339876682
   9796, -0.213965774, -0.331449151
   9797, -0.208284765, -0.323021591
   9798, -0.202603742,  -0.31459406
   9799, -0.196922719,   -0.3061665
   9800, -0.191241696, -0.297738969
   9801, -0.185560673, -0.289311409
   9802,  -0.17987965, -0.280883878
   9803, -0.174198627, -0.272456348
   9804, -0.168517604, -0.264028788
   9805, -0.162836596, -0.255601257
   9806, -0.157155573, -0.247173712
   9807,  -0.15147455, -0.238746166
   9808, -0.145793527, -0.230318621
   9809, -0.140112504, -0.221891075
   9810, -0.134431481,  -0.21346353
   9811, -0.128750458, -0.205035985
   9812, -0.123069443, -0.196608439
   9813,  -0.11738842, -0.188180909
   9814, -0.111707397, -0.179753363
   9815, -0.106026374, -0.171325818
   9816, -0.100345358, -0.162898272
   9817, -0.0946643353, -0.154470727
   9818, -0.0889833122, -0.146043181
   9819, -0.0833022892, -0.137615636
   9820, -0.0776212662, -0.129188105
   9821, -0.0719402507,  -0.12076056
   9822, -0.0662592277, -0.112333015
   9823, -0.0605782047, -0.103905469
   9824, -0.0548971854, -0.0954779238
   9825, -0.338842452, -0.491544604
   9826, -0.332857281, -0.483089209
   9827,  -0.32687214, -0.474633813
   9828, -0.320886999, -0.466178417
   9829, -0.314901859, -0.457723022
   9830, -0.308916718, -0.449267626
   9831, -0.302931547,  -0.44081226
   9832, -0.296946406, -0.432356864
   9833, -0.290961266, -0.423901469
   9834, -0.284976125, -0.415446073
   9835, -0.278990984, -0.406990677
   9836, -0.273005813, -0.398535281
   9837, -0.267020673, -0.390079886
   9838, -0.261035532,  -0.38162449
   9839, -0.255050391, -0.373169094
   9840, -0.249065235, -0.364713699
   9841, -0.243080094, -0.356258303
   9842, -0.237094939, -0.347802907
   9843, -0.231109798, -0.339347512
   9844, -0.225124642, -0.330892116
   9845, -0.219139501,  -0.32243675
   9846, -0.213154361, -0.313981354
   9847, -0.207169205, -0.305525959
   9848, -0.201184064, -0.297070563
   9849, -0.195198908, -0.288615167
   9850, -0.189213768, -0.280159771
   9851, -0.183228612, -0.271704376
   9852, -0.177243471,  -0.26324898
   9853,  -0.17125833, -0.254793584
   9854, -0.165273175, -0.246338189
   9855, -0.159288034, -0.237882808
   9856, -0.153302878, -0.229427412
   9857, -0.147317737, -0.220972016
   9858, -0.141332597, -0.212516621
   9859, -0.135347441, -0.204061225
   9860,   -0.1293623, -0.195605829
   9861, -0.123377152, -0.187150434
   9862, -0.117392004, -0.178695053
   9863, -0.111406855, -0.170239657
   9864, -0.105421707, -0.161784261
   9865, -0.0994365588, -0.153328866
   9866, -0.093451418,  -0.14487347
   9867, -0.0874662697, -0.136418074
   9868, -0.0814811215, -0.127962679
   9869, -0.0754959732,  -0.11950729
   9870, -0.069510825, -0.111051895
   9871, -0.0635256767, -0.102596506
   9872, -0.0575405322, -0.0941411108
   9873, -0.355778933, -0.491515487
   9874, -0.349488884, -0.483030945
   9875, -0.343198836, -0.474546432
   9876, -0.336908787,  -0.46606189
   9877, -0.330618739, -0.457577378
   9878, -0.324328691, -0.449092835
   9879, -0.318038642, -0.440608323
   9880, -0.311748624,  -0.43212378
   9881, -0.305458575, -0.423639268
   9882, -0.299168527, -0.415154725
   9883, -0.292878479, -0.406670213
   9884,  -0.28658843,  -0.39818567
   9885, -0.280298382, -0.389701158
   9886, -0.274008334, -0.381216645
   9887, -0.267718315, -0.372732103
   9888, -0.261428267,  -0.36424759
   9889, -0.255138218, -0.355763048
   9890,  -0.24884817, -0.347278535
   9891, -0.242558122, -0.338793993
   9892, -0.236268073,  -0.33030948
   9893,  -0.22997804, -0.321824938
   9894, -0.223687991, -0.313340425
   9895, -0.217397943, -0.304855883
   9896,  -0.21110791, -0.296371371
   9897, -0.204817861, -0.287886828
   9898, -0.198527813, -0.279402316
   9899, -0.192237765, -0.270917773
   9900, -0.185947731, -0.262433261
   9901, -0.179657683, -0.253948748
   9902, -0.173367634, -0.245464206
   9903, -0.167077586, -0.236979678
   9904, -0.160787553, -0.228495151
   9905, -0.154497504, -0.220010623
   9906, -0.148207456, -0.211526096
   9907, -0.141917422, -0.203041583
   9908, -0.135627374, -0.194557056
   9909, -0.129337326, -0.186072528
   9910, -0.123047285, -0.177588001
   9911, -0.116757236, -0.169103473
   9912, -0.110467196, -0.160618946
   9913, -0.104177147, -0.152134418
   9914, -0.0978871062, -0.143649891
   9915, -0.0915970653, -0.135165364
   9916, -0.085307017, -0.126680836
   9917, -0.0790169761, -0.118196316
   9918, -0.0727269277, -0.109711789
   9919, -0.0664368868, -0.101227261
   9920, -0.0601468422, -0.0927427337
   9921, -0.372714609, -0.491485089
   9922, -0.366118848, -0.482970148
   9923, -0.359523088, -0.474455237
   9924, -0.352927357, -0.465940326
   9925, -0.346331596, -0.457425386
   9926, -0.339735866, -0.448910475
   9927, -0.333140105, -0.440395564
   9928, -0.326544374, -0.431880623
   9929, -0.319948614, -0.423365712
   9930, -0.313352853, -0.414850801
   9931, -0.306757122,  -0.40633589
   9932, -0.300161362,  -0.39782095
   9933, -0.293565631, -0.389306039
   9934,  -0.28696987, -0.380791128
   9935,  -0.28037414, -0.372276187
   9936, -0.273778379, -0.363761276
   9937, -0.267182648, -0.355246365
   9938, -0.260586888, -0.346731424
   9939, -0.253991127, -0.338216513
   9940, -0.247395396, -0.329701602
   9941, -0.240799636, -0.321186662
   9942,  -0.23420389, -0.312671751
   9943, -0.227608144,  -0.30415684
   9944, -0.221012399, -0.295641899
   9945, -0.214416653, -0.287126988
   9946, -0.207820907, -0.278612077
   9947, -0.201225162, -0.270097136
   9948, -0.194629416, -0.261582226
   9949, -0.188033655, -0.253067315
   9950,  -0.18143791, -0.244552389
   9951, -0.174842164, -0.236037463
   9952, -0.168246418, -0.227522552
   9953, -0.161650673, -0.219007626
   9954, -0.155054927,   -0.2104927
   9955, -0.148459181, -0.201977789
   9956, -0.141863421, -0.193462864
   9957, -0.135267675, -0.184947938
   9958, -0.128671929, -0.176433027
   9959, -0.122076184, -0.167918101
   9960, -0.115480438,  -0.15940319
   9961, -0.108884685, -0.150888264
   9962, -0.102288939, -0.142373338
   9963, -0.0956931934, -0.133858427
   9964, -0.0890974477, -0.125343502
   9965, -0.0825016946, -0.116828583
   9966, -0.0759059489, -0.108313657
   9967, -0.0693102032, -0.099798739
   9968, -0.0627144575, -0.0912838206
   9969, -0.389649421, -0.491453439
   9970, -0.382747144, -0.482906908
   9971, -0.375844836, -0.474360347
   9972, -0.368942559, -0.465813786
   9973, -0.362040281, -0.457267225
   9974, -0.355137974, -0.448720694
   9975, -0.348235697, -0.440174133
   9976, -0.341333389, -0.431627572
   9977, -0.334431112, -0.423081011
   9978, -0.327528805, -0.414534479
   9979, -0.320626527, -0.405987918
   9980,  -0.31372422, -0.397441357
   9981, -0.306821942, -0.388894796
   9982, -0.299919635, -0.380348265
   9983, -0.293017358, -0.371801704
   9984,  -0.28611508, -0.363255143
   9985, -0.279212773, -0.354708582
   9986, -0.272310495, -0.346162051
   9987, -0.265408188,  -0.33761549
   9988, -0.258505911, -0.329068929
   9989, -0.251603603, -0.320522368
   9990, -0.244701326, -0.311975837
   9991, -0.237799034, -0.303429276
   9992, -0.230896741, -0.294882715
   9993, -0.223994449, -0.286336154
   9994, -0.217092156, -0.277789623
   9995, -0.210189864, -0.269243062
   9996, -0.203287572, -0.260696501
   9997, -0.196385279,  -0.25214994
   9998, -0.189482987, -0.243603393
   9999, -0.182580695, -0.235056847
  10000, -0.175678402, -0.226510286
  10001,  -0.16877611,  -0.21796374
  10002, -0.161873832, -0.209417194
  10003,  -0.15497154, -0.200870633
  10004, -0.148069248, -0.192324087
  10005, -0.141166955, -0.183777526
  10006, -0.134264663,  -0.17523098
  10007,  -0.12736237, -0.166684419
  10008, -0.120460078, -0.158137873
  10009, -0.113557786, -0.149591312
  10010, -0.106655493, -0.141044766
  10011, -0.0997532085, -0.132498205
  10012, -0.0928509161, -0.123951651
  10013, -0.0859486237, -0.115405098
  10014, -0.0790463313, -0.106858544
  10015, -0.072144039, -0.0983119905
  10016, -0.0652417466, -0.0897654369
  10017, -0.406583399, -0.491420597
  10018,  -0.39937368, -0.482841194
  10019, -0.392163992, -0.474261791
  10020, -0.384954274, -0.465682387
  10021, -0.377744555, -0.457102984
  10022, -0.370534867, -0.448523581
  10023, -0.363325149, -0.439944178
  10024, -0.356115431, -0.431364775
  10025, -0.348905742, -0.422785372
  10026, -0.341696024, -0.414205968
  10027, -0.334486306, -0.405626565
  10028, -0.327276617, -0.397047192
  10029, -0.320066899, -0.388467789
  10030, -0.312857181, -0.379888386
  10031, -0.305647492, -0.371308982
  10032, -0.298437774, -0.362729579
  10033, -0.291228086, -0.354150176
  10034, -0.284018368, -0.345570773
  10035, -0.276808649,  -0.33699137
  10036, -0.269598961, -0.328411967
  10037, -0.262389243, -0.319832563
  10038, -0.255179524,  -0.31125316
  10039, -0.247969821, -0.302673757
  10040, -0.240760118, -0.294094354
  10041, -0.233550414, -0.285514951
  10042, -0.226340696, -0.276935548
  10043, -0.219130993, -0.268356144
  10044,  -0.21192129, -0.259776741
  10045, -0.204711571, -0.251197338
  10046, -0.197501868,  -0.24261795
  10047, -0.190292165, -0.234038547
  10048, -0.183082461, -0.225459144
  10049, -0.175872743,  -0.21687974
  10050,  -0.16866304, -0.208300337
  10051, -0.161453336, -0.199720934
  10052, -0.154243618, -0.191141531
  10053, -0.147033915, -0.182562128
  10054, -0.139824212, -0.173982725
  10055, -0.132614493, -0.165403321
  10056,  -0.12540479, -0.156823918
  10057, -0.118195087, -0.148244515
  10058, -0.110985376, -0.139665127
  10059, -0.103775665, -0.131085724
  10060, -0.0965659618, -0.122506313
  10061, -0.0893562511, -0.113926917
  10062, -0.0821465477, -0.105347514
  10063, -0.074936837, -0.096768111
  10064, -0.0677271262, -0.0881887078
  10065, -0.423516452, -0.491386563
  10066, -0.415998429, -0.482773125
  10067, -0.408480406, -0.474159688
  10068, -0.400962353, -0.465546221
  10069,  -0.39344433, -0.456932783
  10070, -0.385926306, -0.448319346
  10071, -0.378408283, -0.439705908
  10072,  -0.37089023, -0.431092471
  10073, -0.363372207, -0.422479033
  10074, -0.355854183, -0.413865566
  10075,  -0.34833616, -0.405252129
  10076, -0.340818107, -0.396638691
  10077, -0.333300084, -0.388025254
  10078, -0.325782061, -0.379411817
  10079, -0.318264037, -0.370798379
  10080, -0.310745984, -0.362184912
  10081, -0.303227961, -0.353571475
  10082, -0.295709938, -0.344958037
  10083, -0.288191915,   -0.3363446
  10084, -0.280673891, -0.327731162
  10085, -0.273155838, -0.319117725
  10086, -0.265637815, -0.310504287
  10087, -0.258119792,  -0.30189082
  10088, -0.250601768, -0.293277383
  10089,  -0.24308373, -0.284663945
  10090, -0.235565692, -0.276050508
  10091, -0.228047669, -0.267437071
  10092, -0.220529631, -0.258823633
  10093, -0.213011608, -0.250210166
  10094, -0.205493569, -0.241596743
  10095, -0.197975546, -0.232983291
  10096, -0.190457508, -0.224369854
  10097, -0.182939485, -0.215756416
  10098, -0.175421447, -0.207142964
  10099, -0.167903423, -0.198529527
  10100,   -0.1603854, -0.189916089
  10101, -0.152867362, -0.181302637
  10102, -0.145349339, -0.172689199
  10103,   -0.1378313, -0.164075762
  10104, -0.130313277,  -0.15546231
  10105, -0.122795239, -0.146848872
  10106, -0.115277208, -0.138235435
  10107, -0.107759185, -0.129621997
  10108, -0.100241154, -0.121008545
  10109, -0.0927231237, -0.112395108
  10110, -0.085205093, -0.103781663
  10111, -0.0776870623, -0.0951682255
  10112, -0.0701690316, -0.0865547806
  10113, -0.440448582, -0.491351336
  10114,  -0.43262127, -0.482702702
  10115, -0.424793988, -0.474054039
  10116, -0.416966707, -0.465405405
  10117, -0.409139425, -0.456756741
  10118, -0.401312113, -0.448108107
  10119, -0.393484831, -0.439459443
  10120, -0.385657549, -0.430810809
  10121, -0.377830237, -0.422162145
  10122, -0.370002955, -0.413513511
  10123, -0.362175673, -0.404864848
  10124, -0.354348361, -0.396216214
  10125,  -0.34652108,  -0.38756755
  10126, -0.338693798, -0.378918916
  10127, -0.330866516, -0.370270252
  10128, -0.323039204, -0.361621618
  10129, -0.315211922, -0.352972955
  10130,  -0.30738464, -0.344324321
  10131, -0.299557328, -0.335675657
  10132, -0.291730046, -0.327027023
  10133, -0.283902764, -0.318378359
  10134, -0.276075482, -0.309729725
  10135, -0.268248171, -0.301081061
  10136, -0.260420889, -0.292432427
  10137, -0.252593607, -0.283783764
  10138,  -0.24476631,  -0.27513513
  10139, -0.236939013, -0.266486466
  10140, -0.229111731, -0.257837832
  10141, -0.221284434, -0.249189183
  10142, -0.213457152, -0.240540534
  10143, -0.205629855, -0.231891885
  10144, -0.197802573, -0.223243237
  10145, -0.189975277, -0.214594588
  10146,  -0.18214798, -0.205945939
  10147, -0.174320698,  -0.19729729
  10148, -0.166493401, -0.188648641
  10149, -0.158666119, -0.179999992
  10150, -0.150838822, -0.171351343
  10151,  -0.14301154, -0.162702695
  10152, -0.135184243, -0.154054046
  10153, -0.127356946, -0.145405397
  10154, -0.119529665, -0.136756748
  10155, -0.111702368, -0.128108099
  10156, -0.103875078,  -0.11945945
  10157, -0.0960477889, -0.110810801
  10158, -0.0882204995, -0.102162153
  10159, -0.0803932101, -0.0935135037
  10160, -0.0725659207, -0.0848648548
  10161, -0.457379729, -0.491315007
  10162, -0.449242204, -0.482630014
  10163,  -0.44110468, -0.473945022
  10164, -0.432967156, -0.465260029
  10165, -0.424829632, -0.456575006
  10166, -0.416692138, -0.447890013
  10167, -0.408554614, -0.439205021
  10168, -0.400417089, -0.430520028
  10169, -0.392279565, -0.421835035
  10170, -0.384142041, -0.413150042
  10171, -0.376004517,  -0.40446505
  10172, -0.367866993, -0.395780057
  10173, -0.359729499, -0.387095034
  10174, -0.351591974, -0.378410041
  10175,  -0.34345445, -0.369725049
  10176, -0.335316926, -0.361040056
  10177, -0.327179402, -0.352355063
  10178, -0.319041878,  -0.34367007
  10179, -0.310904354, -0.334985077
  10180,  -0.30276686, -0.326300085
  10181, -0.294629335, -0.317615062
  10182, -0.286491811, -0.308930069
  10183, -0.278354287, -0.300245076
  10184, -0.270216763, -0.291560084
  10185, -0.262079239, -0.282875091
  10186, -0.253941715, -0.274190098
  10187, -0.245804206, -0.265505105
  10188, -0.237666696, -0.256820112
  10189, -0.229529172, -0.248135105
  10190, -0.221391648, -0.239450112
  10191, -0.213254124, -0.230765104
  10192, -0.205116615, -0.222080112
  10193, -0.196979091, -0.213395119
  10194, -0.188841566, -0.204710126
  10195, -0.180704057, -0.196025118
  10196, -0.172566533, -0.187340125
  10197, -0.164429009, -0.178655133
  10198,   -0.1562915,  -0.16997014
  10199, -0.148153976, -0.161285132
  10200, -0.140016451, -0.152600139
  10201, -0.131878927, -0.143915147
  10202, -0.123741411, -0.135230154
  10203, -0.115603894, -0.126545146
  10204, -0.107466377, -0.117860153
  10205, -0.0993288532, -0.109175161
  10206, -0.0911913365,  -0.10049016
  10207, -0.0830538124, -0.0918051675
  10208, -0.0749162957, -0.0831201673
  10209, -0.474309862, -0.491277546
  10210, -0.465861112, -0.482555091
  10211, -0.457412362, -0.473832637
  10212, -0.448963612, -0.465110153
  10213, -0.440514892, -0.456387699
  10214, -0.432066143, -0.447665244
  10215, -0.423617393,  -0.43894279
  10216, -0.415168643, -0.430220336
  10217, -0.406719893, -0.421497881
  10218, -0.398271143, -0.412775427
  10219, -0.389822394, -0.404052973
  10220, -0.381373644, -0.395330489
  10221, -0.372924894, -0.386608034
  10222, -0.364476144,  -0.37788558
  10223, -0.356027395, -0.369163126
  10224, -0.347578645, -0.360440671
  10225, -0.339129895, -0.351718217
  10226, -0.330681145, -0.342995763
  10227, -0.322232395, -0.334273309
  10228, -0.313783646, -0.325550824
  10229, -0.305334896,  -0.31682837
  10230, -0.296886146, -0.308105916
  10231, -0.288437396, -0.299383461
  10232, -0.279988647, -0.290661007
  10233, -0.271539897, -0.281938553
  10234, -0.263091147, -0.273216099
  10235, -0.254642427, -0.264493614
  10236, -0.246193662,  -0.25577116
  10237, -0.237744913, -0.247048706
  10238, -0.229296163, -0.238326252
  10239, -0.220847413, -0.229603797
  10240, -0.212398663, -0.220881343
  10241, -0.203949928, -0.212158874
  10242, -0.195501179, -0.203436419
  10243, -0.187052429, -0.194713965
  10244, -0.178603679, -0.185991511
  10245, -0.170154929, -0.177269042
  10246, -0.161706179, -0.168546587
  10247,  -0.15325743, -0.159824133
  10248,  -0.14480868, -0.151101679
  10249,  -0.13635993, -0.142379209
  10250,  -0.12791118, -0.133656755
  10251, -0.119462438, -0.124934301
  10252, -0.111013688, -0.116211839
  10253, -0.102564938, -0.107489385
  10254, -0.0941161886, -0.098766923
  10255, -0.0856674463, -0.0900444686
  10256, -0.0772186965, -0.0813220069
  10257, 0.00300453929, -0.108127341
  10258, 0.00330114015, -0.116291359
  10259, 0.00359774102,  -0.12445537
  10260, 0.00389434188, -0.132619381
  10261, 0.00419094274, -0.140783399
  10262, 0.00448754337, -0.148947418
  10263, 0.00478414446, -0.157111421
  10264, 0.00508074509,  -0.16527544
  10265, 0.00537734618, -0.173439458
  10266, 0.00567394681, -0.181603462
  10267, 0.00597054744,  -0.18976748
  10268, 0.00626714854, -0.197931498
  10269, 0.00656374916, -0.206095502
  10270, 0.00686035026,  -0.21425952
  10271, 0.00715695089, -0.222423539
  10272, 0.00745355198, -0.230587542
  10273, 0.00775015261,  -0.23875156
  10274, 0.0080467537, -0.246915579
  10275, 0.00834335387, -0.255079597
  10276, 0.00863995496, -0.263243616
  10277, 0.00893655606, -0.271407604
  10278, 0.00923315715, -0.279571623
  10279, 0.00952975731, -0.287735641
  10280, 0.00982635841, -0.295899659
  10281, 0.0101229595, -0.304063678
  10282, 0.0104195606, -0.312227696
  10283, 0.0107161608, -0.320391685
  10284, 0.0110127619, -0.328555703
  10285, 0.0113093629, -0.336719722
  10286, 0.0116059631,  -0.34488374
  10287, 0.0119025642, -0.353047758
  10288, 0.0121991653, -0.361211777
  10289, 0.0124957664, -0.369375795
  10290, 0.0127923666, -0.377539784
  10291, 0.0130889677, -0.385703802
  10292, 0.0133855687, -0.393867821
  10293, 0.0136821689, -0.402031839
  10294,   0.01397877, -0.410195857
  10295, 0.0142753711, -0.418359876
  10296, 0.0145719722, -0.426523864
  10297, 0.0148685724, -0.434687883
  10298, 0.0151651734, -0.442851901
  10299, 0.0154617745, -0.451015919
  10300, 0.0157583747, -0.459179938
  10301, 0.0160549767, -0.467343956
  10302, 0.0163515769, -0.475507945
  10303, 0.0166481771, -0.483671963
  10304, 0.0169447791, -0.491835982
  10305, 0.00600713305, -0.108019598
  10306, 0.00660037529, -0.116185859
  10307, 0.00719361752,  -0.12435212
  10308, 0.00778685976, -0.132518381
  10309, 0.00838010199, -0.140684634
  10310, 0.00897334423, -0.148850888
  10311, 0.00956658646, -0.157017156
  10312, 0.0101598287,  -0.16518341
  10313, 0.0107530709, -0.173349664
  10314, 0.0113463132, -0.181515932
  10315, 0.0119395554, -0.189682186
  10316, 0.0125327976, -0.197848439
  10317, 0.0131260399, -0.206014693
  10318, 0.0137192821, -0.214180961
  10319, 0.0143125234, -0.222347215
  10320, 0.0149057657, -0.230513468
  10321, 0.0154990079, -0.238679737
  10322, 0.0160922501,  -0.24684599
  10323, 0.0166854933, -0.255012244
  10324, 0.0172787346, -0.263178498
  10325, 0.0178719778, -0.271344781
  10326, 0.0184652191, -0.279511034
  10327, 0.0190584622, -0.287677288
  10328, 0.0196517035, -0.295843542
  10329, 0.0202449467, -0.304009795
  10330,  0.020838188, -0.312176049
  10331, 0.0214314293, -0.320342302
  10332, 0.0220246725, -0.328508586
  10333, 0.0226179138, -0.336674839
  10334, 0.0232111569, -0.344841093
  10335, 0.0238043983, -0.353007346
  10336, 0.0243976414,   -0.3611736
  10337, 0.0249908827, -0.369339854
  10338, 0.0255841259, -0.377506137
  10339, 0.0261773672,  -0.38567239
  10340, 0.0267706104, -0.393838644
  10341, 0.0273638517, -0.402004898
  10342, 0.0279570948, -0.410171151
  10343, 0.0285503361, -0.418337405
  10344, 0.0291435793, -0.426503688
  10345, 0.0297368206, -0.434669942
  10346, 0.0303300638, -0.442836195
  10347, 0.0309233051, -0.451002449
  10348, 0.0315165482, -0.459168702
  10349, 0.0321097896, -0.467334956
  10350, 0.0327030309, -0.475501239
  10351, 0.0332962759, -0.483667493
  10352, 0.0338895172, -0.491833746
  10353, 0.00900583714, -0.107840113
  10354, 0.00989580154, -0.116010115
  10355, 0.0107857659, -0.124180108
  10356, 0.0116757313, -0.132350102
  10357, 0.0125656957, -0.140520111
  10358, 0.0134556601, -0.148690104
  10359, 0.0143456245, -0.156860098
  10360, 0.0152355889, -0.165030107
  10361, 0.0161255542, -0.173200101
  10362, 0.0170155186, -0.181370094
  10363,  0.017905483, -0.189540088
  10364, 0.0187954474, -0.197710097
  10365, 0.0196854118, -0.205880091
  10366, 0.0205753762, -0.214050084
  10367, 0.0214653406, -0.222220078
  10368, 0.0223553069, -0.230390087
  10369, 0.0232452713, -0.238560081
  10370, 0.0241352357, -0.246730074
  10371, 0.0250252001, -0.254900068
  10372, 0.0259151645, -0.263070077
  10373, 0.0268051289, -0.271240056
  10374, 0.0276950933, -0.279410064
  10375, 0.0285850577, -0.287580073
  10376, 0.0294750221, -0.295750052
  10377, 0.0303649884,  -0.30392006
  10378, 0.0312549509, -0.312090069
  10379, 0.0321449153, -0.320260048
  10380, 0.0330348797, -0.328430057
  10381, 0.0339248441, -0.336600035
  10382, 0.0348148122, -0.344770044
  10383, 0.0357047766, -0.352940053
  10384,  0.036594741, -0.361110032
  10385, 0.0374847054,  -0.36928004
  10386, 0.0383746698, -0.377450049
  10387, 0.0392646343, -0.385620028
  10388, 0.0401545987, -0.393790036
  10389, 0.0410445631, -0.401960015
  10390, 0.0419345275, -0.410130024
  10391, 0.0428244919, -0.418300033
  10392, 0.0437144563, -0.426470011
  10393, 0.0446044207,  -0.43464002
  10394, 0.0454943851, -0.442810029
  10395, 0.0463843495, -0.450980008
  10396, 0.0472743139, -0.459150016
  10397, 0.0481642783, -0.467319995
  10398, 0.0490542427, -0.475490004
  10399, 0.0499442071, -0.483660012
  10400, 0.0508341715, -0.491829991
  10401, 0.0119987102, -0.107589021
  10402, 0.0131855188, -0.115764253
  10403, 0.0143723274, -0.123939484
  10404, 0.0155591359, -0.132114708
  10405, 0.0167459436, -0.140289932
  10406, 0.0179327521, -0.148465171
  10407, 0.0191195607, -0.156640396
  10408, 0.0203063693,  -0.16481562
  10409, 0.0214931779, -0.172990859
  10410, 0.0226799864, -0.181166083
  10411,  0.023866795, -0.189341307
  10412, 0.0250536036, -0.197516546
  10413, 0.0262404121,  -0.20569177
  10414, 0.0274272207, -0.213866994
  10415, 0.0286140293, -0.222042233
  10416, 0.0298008379, -0.230217457
  10417, 0.0309876464, -0.238392681
  10418, 0.0321744531, -0.246567905
  10419, 0.0333612636, -0.254743129
  10420, 0.0345480703, -0.262918383
  10421, 0.0357348807, -0.271093607
  10422, 0.0369216874, -0.279268831
  10423, 0.0381084979, -0.287444055
  10424, 0.0392953046, -0.295619279
  10425,  0.040482115, -0.303794503
  10426, 0.0416689217, -0.311969727
  10427, 0.0428557321, -0.320144981
  10428, 0.0440425389, -0.328320205
  10429, 0.0452293493, -0.336495429
  10430,  0.046416156, -0.344670653
  10431, 0.0476029664, -0.352845877
  10432, 0.0487897731, -0.361021101
  10433, 0.0499765798, -0.369196355
  10434, 0.0511633903, -0.377371579
  10435,  0.052350197, -0.385546803
  10436, 0.0535370074, -0.393722028
  10437, 0.0547238141, -0.401897252
  10438, 0.0559106246, -0.410072476
  10439, 0.0570974313,   -0.4182477
  10440, 0.0582842417, -0.426422954
  10441, 0.0594710484, -0.434598178
  10442, 0.0606578588, -0.442773402
  10443, 0.0618446656, -0.450948626
  10444, 0.0630314723,  -0.45912385
  10445, 0.0642182827, -0.467299074
  10446, 0.0654050931, -0.475474328
  10447, 0.0665919036, -0.483649552
  10448, 0.0677787066, -0.491824776
  10449, 0.0149838151, -0.107266508
  10450,  0.016467629, -0.115448453
  10451, 0.0179514438, -0.123630404
  10452, 0.0194352586, -0.131812349
  10453, 0.0209190715, -0.139994293
  10454, 0.0224028863, -0.148176253
  10455, 0.0238867011, -0.156358197
  10456,  0.025370514, -0.164540142
  10457, 0.0268543288, -0.172722086
  10458, 0.0283381436, -0.180904031
  10459, 0.0298219565,  -0.18908599
  10460, 0.0313057713, -0.197267935
  10461, 0.0327895842, -0.205449879
  10462, 0.0342734009, -0.213631824
  10463, 0.0357572138, -0.221813783
  10464, 0.0372410268, -0.229995728
  10465, 0.0387248434, -0.238177672
  10466, 0.0402086563, -0.246359617
  10467, 0.0416924693, -0.254541576
  10468, 0.0431762859, -0.262723505
  10469, 0.0446600989, -0.270905465
  10470, 0.0461439118, -0.279087424
  10471, 0.0476277284, -0.287269354
  10472, 0.0491115414, -0.295451313
  10473, 0.0505953543, -0.303633243
  10474, 0.0520791709, -0.311815202
  10475, 0.0535629839, -0.319997162
  10476, 0.0550467968, -0.328179091
  10477, 0.0565306135, -0.336361051
  10478, 0.0580144264,  -0.34454298
  10479,  0.059498243,  -0.35272494
  10480,  0.060982056, -0.360906899
  10481, 0.0624658689, -0.369088829
  10482, 0.0639496818, -0.377270788
  10483, 0.0654334947, -0.385452718
  10484, 0.0669173151, -0.393634677
  10485, 0.0684011281, -0.401816636
  10486,  0.069884941, -0.409998566
  10487, 0.0713687539, -0.418180525
  10488, 0.0728525668, -0.426362485
  10489, 0.0743363798, -0.434544414
  10490, 0.0758202001, -0.442726374
  10491, 0.0773040131, -0.450908303
  10492,  0.078787826, -0.459090263
  10493, 0.0802716389, -0.467272222
  10494, 0.0817554519, -0.475454152
  10495, 0.0832392648, -0.483636111
  10496, 0.0847230852, -0.491818041
  10497, 0.0179592222, -0.106872804
  10498, 0.0197402444, -0.115062952
  10499, 0.0215212647,   -0.1232531
  10500, 0.0233022869, -0.131443247
  10501,  0.025083309, -0.139633402
  10502, 0.0268643312, -0.147823557
  10503, 0.0286453534, -0.156013697
  10504, 0.0304263756, -0.164203852
  10505, 0.0322073959, -0.172394007
  10506, 0.0339884199, -0.180584148
  10507, 0.0357694402, -0.188774303
  10508, 0.0375504643, -0.196964458
  10509, 0.0393314846, -0.205154598
  10510, 0.0411125086, -0.213344753
  10511, 0.0428935289, -0.221534908
  10512, 0.0446745493, -0.229725048
  10513, 0.0464555733, -0.237915203
  10514, 0.0482365936, -0.246105358
  10515, 0.0500176176, -0.254295498
  10516,  0.051798638, -0.262485653
  10517,  0.053579662, -0.270675808
  10518, 0.0553606823, -0.278865963
  10519, 0.0571417063, -0.287056088
  10520, 0.0589227267, -0.295246243
  10521,  0.060703747, -0.303436399
  10522,  0.062484771, -0.311626554
  10523, 0.0642657951, -0.319816709
  10524, 0.0660468116, -0.328006864
  10525, 0.0678278357, -0.336196989
  10526, 0.0696088597, -0.344387144
  10527, 0.0713898838, -0.352577299
  10528, 0.0731709003, -0.360767454
  10529, 0.0749519244, -0.368957609
  10530, 0.0767329484, -0.377147764
  10531,  0.078513965, -0.385337889
  10532,  0.080294989, -0.393528044
  10533, 0.0820760131, -0.401718199
  10534, 0.0838570371, -0.409908354
  10535, 0.0856380537, -0.418098509
  10536, 0.0874190778, -0.426288664
  10537, 0.0892001018,  -0.43447879
  10538, 0.0909811258, -0.442668945
  10539, 0.0927621424,   -0.4508591
  10540, 0.0945431665, -0.459049255
  10541, 0.0963241905,  -0.46723941
  10542, 0.0981052071, -0.475429565
  10543, 0.0998862311,  -0.48361969
  10544,  0.101667255, -0.491809845
  10545, 0.0209230036, -0.106408201
  10546, 0.0230014753, -0.114608027
  10547, 0.0250799488, -0.122807853
  10548, 0.0271584205, -0.131007686
  10549, 0.0292368922, -0.139207512
  10550, 0.0313153639, -0.147407338
  10551, 0.0333938338, -0.155607179
  10552, 0.0354723074, -0.163807005
  10553, 0.0375507809, -0.172006831
  10554, 0.0396292508, -0.180206656
  10555, 0.0417077243, -0.188406482
  10556, 0.0437861942, -0.196606323
  10557, 0.0458646677, -0.204806149
  10558, 0.0479431376, -0.213005975
  10559, 0.0500216112, -0.221205801
  10560,  0.052100081, -0.229405642
  10561, 0.0541785546, -0.237605467
  10562, 0.0562570281, -0.245805293
  10563,  0.058335498, -0.254005134
  10564, 0.0604139715, -0.262204945
  10565, 0.0624924414, -0.270404786
  10566, 0.0645709112, -0.278604597
  10567, 0.0666493848, -0.286804438
  10568, 0.0687278584, -0.295004278
  10569, 0.0708063319, -0.303204089
  10570,  0.072884798,  -0.31140393
  10571, 0.0749632716, -0.319603771
  10572, 0.0770417452, -0.327803582
  10573, 0.0791202188, -0.336003423
  10574, 0.0811986923, -0.344203234
  10575, 0.0832771584, -0.352403075
  10576,  0.085355632, -0.360602915
  10577, 0.0874341056, -0.368802726
  10578, 0.0895125791, -0.377002567
  10579, 0.0915910453, -0.385202378
  10580, 0.0936695188, -0.393402219
  10581, 0.0957479924,  -0.40160206
  10582,  0.097826466, -0.409801871
  10583, 0.0999049395, -0.418001711
  10584,  0.101983406, -0.426201522
  10585,  0.104061879, -0.434401363
  10586,  0.106140353, -0.442601204
  10587,  0.108218826, -0.450801015
  10588,  0.110297292, -0.459000856
  10589,  0.112375766, -0.467200696
  10590,   0.11445424, -0.475400507
  10591,  0.116532713, -0.483600348
  10592,  0.118611187, -0.491800159
  10593, 0.0238732472, -0.105873033
  10594, 0.0262494516, -0.114084013
  10595, 0.0286256559, -0.122294992
  10596, 0.0310018603, -0.130505964
  10597, 0.0333780646, -0.138716951
  10598, 0.0357542671, -0.146927923
  10599, 0.0381304696,  -0.15513891
  10600, 0.0405066758, -0.163349882
  10601, 0.0428828783, -0.171560869
  10602, 0.0452590846, -0.179771841
  10603,  0.047635287, -0.187982813
  10604, 0.0500114895, -0.196193799
  10605, 0.0523876958, -0.204404771
  10606, 0.0547638983, -0.212615758
  10607, 0.0571401007,  -0.22082673
  10608,  0.059516307, -0.229037717
  10609, 0.0618925095, -0.237248689
  10610, 0.0642687157, -0.245459661
  10611, 0.0666449144, -0.253670633
  10612, 0.0690211207,  -0.26188162
  10613, 0.0713973269, -0.270092607
  10614, 0.0737735331, -0.278303593
  10615, 0.0761497319,  -0.28651455
  10616, 0.0785259381, -0.294725537
  10617, 0.0809021443, -0.302936524
  10618, 0.0832783431, -0.311147481
  10619, 0.0856545493, -0.319358468
  10620, 0.0880307555, -0.327569455
  10621, 0.0904069543, -0.335780442
  10622, 0.0927831605, -0.343991399
  10623, 0.0951593667, -0.352202386
  10624, 0.0975355655, -0.360413373
  10625, 0.0999117717, -0.368624359
  10626,  0.102287978, -0.376835316
  10627,  0.104664177, -0.385046303
  10628,  0.107040383,  -0.39325729
  10629,  0.109416589, -0.401468247
  10630,  0.111792795, -0.409679234
  10631,  0.114168994, -0.417890221
  10632,    0.1165452, -0.426101208
  10633,  0.118921407, -0.434312165
  10634,  0.121297605, -0.442523152
  10635,  0.123673812, -0.450734138
  10636,   0.12605001, -0.458945096
  10637,  0.128426224, -0.467156082
  10638,  0.130802423, -0.475367069
  10639,  0.133178622, -0.483578056
  10640,  0.135554835, -0.491789013
  10641, 0.0268080477, -0.105267704
  10642,  0.029482305, -0.113491297
  10643, 0.0321565606, -0.121714883
  10644, 0.0348308198, -0.129938468
  10645, 0.0375050791, -0.138162062
  10646, 0.0401793346, -0.146385655
  10647, 0.0428535938, -0.154609248
  10648, 0.0455278493, -0.162832826
  10649, 0.0482021086,  -0.17105642
  10650, 0.0508763641, -0.179280013
  10651, 0.0535506234, -0.187503606
  10652, 0.0562248826, -0.195727184
  10653, 0.0588991381, -0.203950778
  10654, 0.0615733974, -0.212174371
  10655, 0.0642476529, -0.220397964
  10656, 0.0669219121, -0.228621542
  10657, 0.0695961714, -0.236845136
  10658, 0.0722704232, -0.245068729
  10659, 0.0749446824, -0.253292322
  10660, 0.0776189417, -0.261515915
  10661, 0.0802932009, -0.269739509
  10662, 0.0829674602, -0.277963072
  10663,  0.085641712, -0.286186665
  10664, 0.0883159712, -0.294410259
  10665, 0.0909902304, -0.302633852
  10666, 0.0936644897, -0.310857445
  10667, 0.0963387489, -0.319081038
  10668, 0.0990130007, -0.327304631
  10669,   0.10168726, -0.335528225
  10670,  0.104361519, -0.343751788
  10671,  0.107035778, -0.351975381
  10672,   0.10971003, -0.360198975
  10673,   0.11238429, -0.368422568
  10674,  0.115058549, -0.376646161
  10675,  0.117732808, -0.384869754
  10676,  0.120407067, -0.393093348
  10677,  0.123081319, -0.401316941
  10678,  0.125755578, -0.409540504
  10679,   0.12842983, -0.417764097
  10680,  0.131104097, -0.425987691
  10681,  0.133778349, -0.434211284
  10682,  0.136452615, -0.442434877
  10683,  0.139126867,  -0.45065847
  10684,  0.141801119, -0.458882064
  10685,  0.144475386, -0.467105657
  10686,  0.147149637,  -0.47532922
  10687,  0.149823904, -0.483552814
  10688,  0.152498156, -0.491776407
  10689, 0.0297255069, -0.104592651
  10690, 0.0326981805, -0.112830304
  10691, 0.0356708504, -0.121067956
  10692, 0.0386435241, -0.129305616
  10693, 0.0416161977, -0.137543261
  10694, 0.0445888713, -0.145780921
  10695, 0.0475615412, -0.154018566
  10696, 0.0505342148, -0.162256226
  10697, 0.0535068884, -0.170493871
  10698, 0.0564795621, -0.178731531
  10699,  0.059452232, -0.186969176
  10700, 0.0624249056, -0.195206836
  10701, 0.0653975755, -0.203444496
  10702, 0.0683702528, -0.211682141
  10703, 0.0713429227, -0.219919801
  10704, 0.0743155926, -0.228157446
  10705,   0.07728827, -0.236395106
  10706, 0.0802609399, -0.244632751
  10707, 0.0832336172, -0.252870411
  10708, 0.0862062871, -0.261108071
  10709,  0.089178957, -0.269345701
  10710, 0.0921516344, -0.277583361
  10711, 0.0951243043, -0.285821021
  10712, 0.0980969742, -0.294058681
  10713,  0.101069652,  -0.30229634
  10714,  0.104042321, -0.310533971
  10715,  0.107014999, -0.318771631
  10716,  0.109987669,  -0.32700929
  10717,  0.112960339,  -0.33524695
  10718,  0.115933016, -0.343484581
  10719,  0.118905686,  -0.35172224
  10720,  0.121878356,   -0.3599599
  10721,  0.124851033,  -0.36819756
  10722,   0.12782371,  -0.37643519
  10723,  0.130796373,  -0.38467285
  10724,   0.13376905,  -0.39291051
  10725,  0.136741728,  -0.40114817
  10726,   0.13971439,  -0.40938583
  10727,  0.142687067,  -0.41762346
  10728,  0.145659745,  -0.42586112
  10729,  0.148632407,  -0.43409878
  10730,  0.151605085,  -0.44233644
  10731,  0.154577762,  -0.45057407
  10732,  0.157550424,  -0.45881173
  10733,  0.160523102,  -0.46704939
  10734,  0.163495779,  -0.47528705
  10735,  0.166468441,  -0.48352468
  10736,  0.169441119,  -0.49176234
  10737, 0.0326237455, -0.103848375
  10738, 0.0358952321, -0.112101533
  10739, 0.0391667224,  -0.12035469
  10740, 0.0424382091, -0.128607854
  10741, 0.0457096994, -0.136861011
  10742,  0.048981186, -0.145114169
  10743, 0.0522526726, -0.153367326
  10744, 0.0555241629, -0.161620483
  10745, 0.0587956496,  -0.16987364
  10746, 0.0620671362, -0.178126797
  10747, 0.0653386265, -0.186379969
  10748, 0.0686101168, -0.194633126
  10749, 0.0718815997, -0.202886283
  10750, 0.0751530901, -0.211139441
  10751, 0.0784245804, -0.219392598
  10752, 0.0816960633, -0.227645755
  10753, 0.0849675536, -0.235898912
  10754,  0.088239044, -0.244152069
  10755, 0.0915105268, -0.252405226
  10756, 0.0947820172, -0.260658383
  10757, 0.0980535075, -0.268911541
  10758,  0.101324998, -0.277164698
  10759,  0.104596481, -0.285417855
  10760,  0.107867971, -0.293671042
  10761,  0.111139461, -0.301924199
  10762,  0.114410944, -0.310177356
  10763,  0.117682435, -0.318430513
  10764,  0.120953925,  -0.32668367
  10765,  0.124225408, -0.334936827
  10766,  0.127496898, -0.343189985
  10767,  0.130768389, -0.351443142
  10768,  0.134039879, -0.359696299
  10769,  0.137311369, -0.367949456
  10770,  0.140582845, -0.376202613
  10771,  0.143854335,  -0.38445577
  10772,  0.147125825, -0.392708927
  10773,  0.150397316, -0.400962085
  10774,  0.153668806, -0.409215242
  10775,  0.156940296, -0.417468399
  10776,  0.160211787, -0.425721556
  10777,  0.163483262, -0.433974743
  10778,  0.166754752,   -0.4422279
  10779,  0.170026243, -0.450481057
  10780,  0.173297733, -0.458734214
  10781,  0.176569223, -0.466987371
  10782,  0.179840714, -0.475240529
  10783,  0.183112189, -0.483493686
  10784,   0.18638368, -0.491746843
  10785, 0.0355008952, -0.103035413
  10786, 0.0390716381, -0.111305505
  10787,  0.042642381, -0.119575605
  10788, 0.0462131239, -0.127845705
  10789, 0.0497838669, -0.136115789
  10790, 0.0533546098, -0.144385889
  10791, 0.0569253527, -0.152655989
  10792, 0.0604960956, -0.160926089
  10793, 0.0640668422, -0.169196174
  10794, 0.0676375777, -0.177466273
  10795, 0.0712083206, -0.185736373
  10796, 0.0747790635, -0.194006458
  10797, 0.0783498064, -0.202276558
  10798, 0.0819205493, -0.210546657
  10799, 0.0854912922, -0.218816757
  10800, 0.0890620351, -0.227086842
  10801,  0.092632778, -0.235356942
  10802, 0.0962035209, -0.243627042
  10803, 0.0997742638, -0.251897126
  10804,  0.103345007, -0.260167241
  10805,   0.10691575, -0.268437326
  10806,  0.110486493, -0.276707411
  10807,  0.114057235, -0.284977525
  10808,  0.117627978,  -0.29324761
  10809,  0.121198721, -0.301517695
  10810,  0.124769464,  -0.30978781
  10811,  0.128340214, -0.318057895
  10812,   0.13191095,  -0.32632798
  10813,    0.1354817, -0.334598094
  10814,  0.139052436, -0.342868179
  10815,  0.142623186, -0.351138294
  10816,  0.146193922, -0.359408379
  10817,  0.149764672, -0.367678463
  10818,  0.153335407, -0.375948578
  10819,  0.156906158, -0.384218663
  10820,  0.160476893, -0.392488748
  10821,  0.164047644, -0.400758862
  10822,  0.167618379, -0.409028947
  10823,  0.171189129, -0.417299032
  10824,  0.174759865, -0.425569147
  10825,  0.178330615, -0.433839232
  10826,  0.181901351, -0.442109317
  10827,  0.185472101, -0.450379431
  10828,  0.189042836, -0.458649516
  10829,  0.192613587, -0.466919631
  10830,  0.196184322, -0.475189716
  10831,  0.199755073,   -0.4834598
  10832,  0.203325808, -0.491729915
  10833, 0.0383551046, -0.102154367
  10834, 0.0422255807, -0.110442817
  10835, 0.0460960567, -0.118731268
  10836, 0.0499665327, -0.127019718
  10837, 0.0538370088, -0.135308176
  10838, 0.0577074848, -0.143596619
  10839, 0.0615779571, -0.151885077
  10840, 0.0654484332,  -0.16017352
  10841, 0.0693189129, -0.168461978
  10842, 0.0731893852, -0.176750422
  10843, 0.0770598575,  -0.18503888
  10844, 0.0809303373, -0.193327323
  10845, 0.0848008096, -0.201615781
  10846, 0.0886712894, -0.209904224
  10847, 0.0925417617, -0.218192682
  10848, 0.0964122415, -0.226481125
  10849,  0.100282714, -0.234769583
  10850,  0.104153186, -0.243058026
  10851,  0.108023666, -0.251346469
  10852,  0.111894138, -0.259634942
  10853,  0.115764618, -0.267923385
  10854,   0.11963509, -0.276211828
  10855,   0.12350557, -0.284500271
  10856,   0.12737605, -0.292788744
  10857,  0.131246522, -0.301077187
  10858,  0.135116994,  -0.30936563
  10859,  0.138987467, -0.317654073
  10860,  0.142857939, -0.325942546
  10861,  0.146728426, -0.334230989
  10862,  0.150598899, -0.342519432
  10863,  0.154469371, -0.350807875
  10864,  0.158339843, -0.359096348
  10865,  0.162210315, -0.367384791
  10866,  0.166080803, -0.375673234
  10867,  0.169951275, -0.383961678
  10868,  0.173821747,  -0.39225015
  10869,   0.17769222, -0.400538594
  10870,  0.181562707, -0.408827037
  10871,  0.185433179,  -0.41711548
  10872,  0.189303651, -0.425403953
  10873,  0.193174124, -0.433692396
  10874,  0.197044596, -0.441980839
  10875,  0.200915083, -0.450269282
  10876,  0.204785556, -0.458557755
  10877,  0.208656028, -0.466846198
  10878,    0.2125265, -0.475134641
  10879,  0.216396973, -0.483423084
  10880,   0.22026746, -0.491711557
  10881, 0.0411845408, -0.101205885
  10882, 0.0453552641, -0.109514095
  10883, 0.0495259874, -0.117822304
  10884, 0.0536967143, -0.126130521
  10885, 0.0578674376, -0.134438723
  10886, 0.0620381609,  -0.14274694
  10887, 0.0662088841, -0.151055142
  10888, 0.0703796074, -0.159363359
  10889, 0.0745503381, -0.167671576
  10890, 0.0787210613, -0.175979778
  10891, 0.0828917846, -0.184287995
  10892, 0.0870625079, -0.192596197
  10893, 0.0912332311, -0.200904414
  10894, 0.0954039544, -0.209212616
  10895, 0.0995746776, -0.217520833
  10896,  0.103745408,  -0.22582905
  10897,  0.107916132, -0.234137252
  10898,  0.112086855, -0.242445469
  10899,  0.116257578, -0.250753671
  10900,  0.120428301, -0.259061873
  10901,  0.124599025, -0.267370105
  10902,  0.128769755, -0.275678307
  10903,  0.132940471, -0.283986509
  10904,  0.137111202, -0.292294741
  10905,  0.141281918, -0.300602943
  10906,  0.145452648, -0.308911145
  10907,  0.149623379, -0.317219377
  10908,  0.153794095, -0.325527579
  10909,  0.157964826, -0.333835781
  10910,  0.162135541, -0.342143983
  10911,  0.166306272, -0.350452214
  10912,  0.170477003, -0.358760417
  10913,  0.174647719, -0.367068619
  10914,  0.178818449,  -0.37537685
  10915,  0.182989165, -0.383685052
  10916,  0.187159896, -0.391993254
  10917,  0.191330612, -0.400301456
  10918,  0.195501342, -0.408609688
  10919,  0.199672073,  -0.41691789
  10920,  0.203842789, -0.425226092
  10921,   0.20801352, -0.433534324
  10922,  0.212184235, -0.441842526
  10923,  0.216354966, -0.450150728
  10924,  0.220525682,  -0.45845896
  10925,  0.224696413, -0.466767162
  10926,  0.228867143, -0.475075364
  10927,  0.233037859, -0.483383566
  10928,   0.23720859, -0.491691798
  10929, 0.0439873822, -0.100190654
  10930, 0.0484589078, -0.108520016
  10931,  0.052930437, -0.116849378
  10932, 0.0574019626, -0.125178739
  10933, 0.0618734919, -0.133508101
  10934, 0.0663450211, -0.141837463
  10935, 0.0708165467, -0.150166824
  10936, 0.0752880722, -0.158496186
  10937, 0.0797595978, -0.166825548
  10938, 0.0842311233, -0.175154909
  10939, 0.0887026563, -0.183484271
  10940, 0.0931741819, -0.191813633
  10941, 0.0976457074, -0.200142995
  10942,  0.102117233, -0.208472356
  10943,  0.106588766, -0.216801718
  10944,  0.111060292,  -0.22513108
  10945,  0.115531817, -0.233460441
  10946,  0.120003343, -0.241789803
  10947,  0.124474868,  -0.25011915
  10948,  0.128946394, -0.258448511
  10949,  0.133417919, -0.266777873
  10950,   0.13788946, -0.275107235
  10951,  0.142360985, -0.283436596
  10952,  0.146832511, -0.291765958
  10953,  0.151304036,  -0.30009532
  10954,  0.155775562, -0.308424681
  10955,  0.160247087, -0.316754043
  10956,  0.164718613, -0.325083405
  10957,  0.169190139, -0.333412766
  10958,  0.173661679, -0.341742128
  10959,  0.178133205,  -0.35007149
  10960,   0.18260473, -0.358400851
  10961,  0.187076256, -0.366730213
  10962,  0.191547781, -0.375059575
  10963,  0.196019307, -0.383388937
  10964,  0.200490832, -0.391718298
  10965,  0.204962358,  -0.40004766
  10966,  0.209433883, -0.408377022
  10967,  0.213905424, -0.416706383
  10968,  0.218376949, -0.425035745
  10969,  0.222848475, -0.433365107
  10970,  0.227320001, -0.441694468
  10971,  0.231791526,  -0.45002383
  10972,  0.236263052, -0.458353192
  10973,  0.240734577, -0.466682553
  10974,  0.245206103, -0.475011915
  10975,  0.249677628, -0.483341277
  10976,  0.254149169, -0.491670638
  10977, 0.0467618331, -0.0991094261
  10978, 0.0515347533, -0.107461318
  10979, 0.0563076735, -0.115813203
  10980, 0.0610805973, -0.124165088
  10981, 0.0658535212,  -0.13251698
  10982, 0.0706264377, -0.140868858
  10983, 0.0753993616,  -0.14922075
  10984, 0.0801722854, -0.157572642
  10985, 0.0849452019, -0.165924519
  10986, 0.0897181258, -0.174276412
  10987, 0.0944910496, -0.182628304
  10988, 0.0992639661, -0.190980181
  10989,   0.10403689, -0.199332073
  10990,  0.108809814, -0.207683966
  10991,  0.113582738, -0.216035843
  10992,  0.118355654, -0.224387735
  10993,  0.123128578, -0.232739612
  10994,  0.127901495, -0.241091505
  10995,  0.132674426, -0.249443397
  10996,  0.137447342, -0.257795274
  10997,  0.142220259, -0.266147166
  10998,   0.14699319, -0.274499059
  10999,  0.151766106, -0.282850951
  11000,  0.156539023, -0.291202813
  11001,  0.161311954, -0.299554706
  11002,  0.166084871, -0.307906598
  11003,  0.170857787,  -0.31625849
  11004,  0.175630718, -0.324610382
  11005,  0.180403635, -0.332962275
  11006,  0.185176551, -0.341314137
  11007,  0.189949483, -0.349666029
  11008,  0.194722399, -0.358017921
  11009,   0.19949533, -0.366369814
  11010,  0.204268247, -0.374721706
  11011,  0.209041163, -0.383073598
  11012,  0.213814095, -0.391425461
  11013,  0.218587011, -0.399777353
  11014,  0.223359928, -0.408129245
  11015,  0.228132859, -0.416481137
  11016,  0.232905775,  -0.42483303
  11017,  0.237678692, -0.433184892
  11018,  0.242451623, -0.441536784
  11019,   0.24722454, -0.449888676
  11020,  0.251997471, -0.458240569
  11021,  0.256770372, -0.466592461
  11022,  0.261543304, -0.474944353
  11023,  0.266316235, -0.483296216
  11024,  0.271089137, -0.491648108
  11025, 0.0495061167, -0.0979629979
  11026,  0.054581061, -0.106338769
  11027, 0.0596560054, -0.114714541
  11028, 0.0647309497, -0.123090312
  11029, 0.0698058903, -0.131466076
  11030, 0.0748808384, -0.139841855
  11031,  0.079955779, -0.148217618
  11032, 0.0850307271, -0.156593397
  11033, 0.0901056677, -0.164969161
  11034, 0.0951806158,  -0.17334494
  11035,  0.100255556, -0.181720704
  11036,  0.105330504, -0.190096483
  11037,  0.110405445, -0.198472247
  11038,  0.115480393, -0.206848025
  11039,  0.120555334, -0.215223789
  11040,  0.125630274, -0.223599553
  11041,  0.130705222, -0.231975332
  11042,  0.135780171, -0.240351096
  11043,  0.140855119, -0.248726875
  11044,  0.145930067, -0.257102638
  11045,     0.151005, -0.265478402
  11046,  0.156079948, -0.273854196
  11047,  0.161154896,  -0.28222996
  11048,  0.166229844, -0.290605724
  11049,  0.171304777, -0.298981488
  11050,  0.176379725, -0.307357281
  11051,  0.181454673, -0.315733045
  11052,  0.186529621, -0.324108809
  11053,  0.191604555, -0.332484573
  11054,  0.196679503, -0.340860367
  11055,  0.201754451, -0.349236131
  11056,  0.206829399, -0.357611895
  11057,  0.211904332, -0.365987659
  11058,   0.21697928, -0.374363422
  11059,  0.222054228, -0.382739216
  11060,  0.227129176,  -0.39111498
  11061,  0.232204109, -0.399490744
  11062,  0.237279058, -0.407866508
  11063,  0.242354006, -0.416242301
  11064,  0.247428954, -0.424618065
  11065,  0.252503902, -0.432993829
  11066,   0.25757885, -0.441369593
  11067,  0.262653768, -0.449745387
  11068,  0.267728716, -0.458121151
  11069,  0.272803664, -0.466496915
  11070,  0.277878612, -0.474872679
  11071,   0.28295356, -0.483248472
  11072,  0.288028508, -0.491624236
  11073, 0.0522184782, -0.0967521966
  11074, 0.0575961098, -0.105153196
  11075, 0.0629737377, -0.113554195
  11076, 0.0683513731, -0.121955186
  11077, 0.0737290084, -0.130356178
  11078, 0.0791066363, -0.138757184
  11079, 0.0844842717, -0.147158176
  11080, 0.0898618996, -0.155559167
  11081,  0.095239535, -0.163960174
  11082,   0.10061717, -0.172361165
  11083,  0.105994798, -0.180762157
  11084,  0.111372434, -0.189163148
  11085,  0.116750062, -0.197564155
  11086,  0.122127697, -0.205965146
  11087,  0.127505332, -0.214366138
  11088,  0.132882968, -0.222767144
  11089,  0.138260588, -0.231168136
  11090,  0.143638223, -0.239569128
  11091,  0.149015859, -0.247970119
  11092,  0.154393494, -0.256371111
  11093,  0.159771129, -0.264772117
  11094,   0.16514875, -0.273173124
  11095,  0.170526385,   -0.2815741
  11096,  0.175904021, -0.289975107
  11097,  0.181281656, -0.298376113
  11098,  0.186659291,  -0.30677709
  11099,  0.192036912, -0.315178096
  11100,  0.197414547, -0.323579073
  11101,  0.202792183, -0.331980079
  11102,  0.208169818, -0.340381086
  11103,  0.213547453, -0.348782063
  11104,  0.218925074, -0.357183069
  11105,  0.224302709, -0.365584075
  11106,  0.229680344, -0.373985052
  11107,   0.23505798, -0.382386059
  11108,    0.2404356, -0.390787065
  11109,  0.245813236, -0.399188042
  11110,  0.251190871, -0.407589048
  11111,  0.256568491, -0.415990055
  11112,  0.261946142, -0.424391031
  11113,  0.267323762, -0.432792038
  11114,  0.272701412, -0.441193014
  11115,  0.278079033, -0.449594021
  11116,  0.283456653, -0.457995027
  11117,  0.288834304, -0.466396004
  11118,  0.294211924,  -0.47479701
  11119,  0.299589574, -0.483198017
  11120,  0.304967195, -0.491598994
  11121, 0.0548971854, -0.0954779238
  11122, 0.0605782047, -0.103905469
  11123, 0.0662592277, -0.112333015
  11124, 0.0719402507,  -0.12076056
  11125, 0.0776212662, -0.129188105
  11126, 0.0833022892, -0.137615636
  11127, 0.0889833122, -0.146043181
  11128, 0.0946643353, -0.154470727
  11129,  0.100345358, -0.162898272
  11130,  0.106026374, -0.171325818
  11131,  0.111707397, -0.179753363
  11132,   0.11738842, -0.188180909
  11133,  0.123069443, -0.196608439
  11134,  0.128750458, -0.205035985
  11135,  0.134431481,  -0.21346353
  11136,  0.140112504, -0.221891075
  11137,  0.145793527, -0.230318621
  11138,   0.15147455, -0.238746166
  11139,  0.157155573, -0.247173712
  11140,  0.162836596, -0.255601257
  11141,  0.168517604, -0.264028788
  11142,  0.174198627, -0.272456348
  11143,   0.17987965, -0.280883878
  11144,  0.185560673, -0.289311409
  11145,  0.191241696, -0.297738969
  11146,  0.196922719,   -0.3061665
  11147,  0.202603742,  -0.31459406
  11148,  0.208284765, -0.323021591
  11149,  0.213965774, -0.331449151
  11150,  0.219646797, -0.339876682
  11151,   0.22532782, -0.348304212
  11152,  0.231008843, -0.356731772
  11153,  0.236689866, -0.365159303
  11154,  0.242370889, -0.373586863
  11155,  0.248051912, -0.382014394
  11156,   0.25373292, -0.390441924
  11157,  0.259413958, -0.398869485
  11158,  0.265094966, -0.407297015
  11159,  0.270776004, -0.415724576
  11160,  0.276457012, -0.424152106
  11161,   0.28213805, -0.432579666
  11162,  0.287819058, -0.441007197
  11163,  0.293500066, -0.449434727
  11164,  0.299181104, -0.457862288
  11165,  0.304862112, -0.466289818
  11166,   0.31054315, -0.474717379
  11167,  0.316224158, -0.483144909
  11168,  0.321905196, -0.491572469
  11169, 0.0575405322, -0.0941411108
  11170, 0.0635256767, -0.102596506
  11171,  0.069510825, -0.111051895
  11172, 0.0754959732,  -0.11950729
  11173, 0.0814811215, -0.127962679
  11174, 0.0874662697, -0.136418074
  11175,  0.093451418,  -0.14487347
  11176, 0.0994365588, -0.153328866
  11177,  0.105421707, -0.161784261
  11178,  0.111406855, -0.170239657
  11179,  0.117392004, -0.178695053
  11180,  0.123377152, -0.187150434
  11181,    0.1293623, -0.195605829
  11182,  0.135347441, -0.204061225
  11183,  0.141332597, -0.212516621
  11184,  0.147317737, -0.220972016
  11185,  0.153302878, -0.229427412
  11186,  0.159288034, -0.237882808
  11187,  0.165273175, -0.246338189
  11188,   0.17125833, -0.254793584
  11189,  0.177243471,  -0.26324898
  11190,  0.183228612, -0.271704376
  11191,  0.189213768, -0.280159771
  11192,  0.195198908, -0.288615167
  11193,  0.201184064, -0.297070563
  11194,  0.207169205, -0.305525959
  11195,  0.213154361, -0.313981354
  11196,  0.219139501,  -0.32243675
  11197,  0.225124642, -0.330892116
  11198,  0.231109798, -0.339347512
  11199,  0.237094939, -0.347802907
  11200,  0.243080094, -0.356258303
  11201,  0.249065235, -0.364713699
  11202,  0.255050391, -0.373169094
  11203,  0.261035532,  -0.38162449
  11204,  0.267020673, -0.390079886
  11205,  0.273005813, -0.398535281
  11206,  0.278990984, -0.406990677
  11207,  0.284976125, -0.415446073
  11208,  0.290961266, -0.423901469
  11209,  0.296946406, -0.432356864
  11210,  0.302931547,  -0.44081226
  11211,  0.308916718, -0.449267626
  11212,  0.314901859, -0.457723022
  11213,  0.320886999, -0.466178417
  11214,   0.32687214, -0.474633813
  11215,  0.332857281, -0.483089209
  11216,  0.338842452, -0.491544604
  11217, 0.0601468422, -0.0927427337
  11218, 0.0664368868, -0.101227261
  11219, 0.0727269277, -0.109711789
  11220, 0.0790169761, -0.118196316
  11221,  0.085307017, -0.126680836
  11222, 0.0915970653, -0.135165364
  11223, 0.0978871062, -0.143649891
  11224,  0.104177147, -0.152134418
  11225,  0.110467196, -0.160618946
  11226,  0.116757236, -0.169103473
  11227,  0.123047285, -0.177588001
  11228,  0.129337326, -0.186072528
  11229,  0.135627374, -0.194557056
  11230,  0.141917422, -0.203041583
  11231,  0.148207456, -0.211526096
  11232,  0.154497504, -0.220010623
  11233,  0.160787553, -0.228495151
  11234,  0.167077586, -0.236979678
  11235,  0.173367634, -0.245464206
  11236,  0.179657683, -0.253948748
  11237,  0.185947731, -0.262433261
  11238,  0.192237765, -0.270917773
  11239,  0.198527813, -0.279402316
  11240,  0.204817861, -0.287886828
  11241,   0.21110791, -0.296371371
  11242,  0.217397943, -0.304855883
  11243,  0.223687991, -0.313340425
  11244,   0.22997804, -0.321824938
  11245,  0.236268073,  -0.33030948
  11246,  0.242558122, -0.338793993
  11247,   0.24884817, -0.347278535
  11248,  0.255138218, -0.355763048
  11249,  0.261428267,  -0.36424759
  11250,  0.267718315, -0.372732103
  11251,  0.274008334, -0.381216645
  11252,  0.280298382, -0.389701158
  11253,   0.28658843,  -0.39818567
  11254,  0.292878479, -0.406670213
  11255,  0.299168527, -0.415154725
  11256,  0.305458575, -0.423639268
  11257,  0.311748624,  -0.43212378
  11258,  0.318038642, -0.440608323
  11259,  0.324328691, -0.449092835
  11260,  0.330618739, -0.457577378
  11261,  0.336908787,  -0.46606189
  11262,  0.343198836, -0.474546432
  11263,  0.349488884, -0.483030945
  11264,  0.355778933, -0.491515487
  11265, 0.0627144575, -0.0912838206
  11266, 0.0693102032, -0.099798739
  11267, 0.0759059489, -0.108313657
  11268, 0.0825016946, -0.116828583
  11269, 0.0890974477, -0.125343502
  11270, 0.0956931934, -0.133858427
  11271,  0.102288939, -0.142373338
  11272,  0.108884685, -0.150888264
  11273,  0.115480438,  -0.15940319
  11274,  0.122076184, -0.167918101
  11275,  0.128671929, -0.176433027
  11276,  0.135267675, -0.184947938
  11277,  0.141863421, -0.193462864
  11278,  0.148459181, -0.201977789
  11279,  0.155054927,   -0.2104927
  11280,  0.161650673, -0.219007626
  11281,  0.168246418, -0.227522552
  11282,  0.174842164, -0.236037463
  11283,   0.18143791, -0.244552389
  11284,  0.188033655, -0.253067315
  11285,  0.194629416, -0.261582226
  11286,  0.201225162, -0.270097136
  11287,  0.207820907, -0.278612077
  11288,  0.214416653, -0.287126988
  11289,  0.221012399, -0.295641899
  11290,  0.227608144,  -0.30415684
  11291,   0.23420389, -0.312671751
  11292,  0.240799636, -0.321186662
  11293,  0.247395396, -0.329701602
  11294,  0.253991127, -0.338216513
  11295,  0.260586888, -0.346731424
  11296,  0.267182648, -0.355246365
  11297,  0.273778379, -0.363761276
  11298,   0.28037414, -0.372276187
  11299,   0.28696987, -0.380791128
  11300,  0.293565631, -0.389306039
  11301,  0.300161362,  -0.39782095
  11302,  0.306757122,  -0.40633589
  11303,  0.313352853, -0.414850801
  11304,  0.319948614, -0.423365712
  11305,  0.326544374, -0.431880623
  11306,  0.333140105, -0.440395564
  11307,  0.339735866, -0.448910475
  11308,  0.346331596, -0.457425386
  11309,  0.352927357, -0.465940326
  11310,  0.359523088, -0.474455237
  11311,  0.366118848, -0.482970148
  11312,  0.372714609, -0.491485089
  11313, 0.0652417466, -0.0897654369
  11314,  0.072144039, -0.0983119905
  11315, 0.0790463313, -0.106858544
  11316, 0.0859486237, -0.115405098
  11317, 0.0928509161, -0.123951651
  11318, 0.0997532085, -0.132498205
  11319,  0.106655493, -0.141044766
  11320,  0.113557786, -0.149591312
  11321,  0.120460078, -0.158137873
  11322,   0.12736237, -0.166684419
  11323,  0.134264663,  -0.17523098
  11324,  0.141166955, -0.183777526
  11325,  0.148069248, -0.192324087
  11326,   0.15497154, -0.200870633
  11327,  0.161873832, -0.209417194
  11328,   0.16877611,  -0.21796374
  11329,  0.175678402, -0.226510286
  11330,  0.182580695, -0.235056847
  11331,  0.189482987, -0.243603393
  11332,  0.196385279,  -0.25214994
  11333,  0.203287572, -0.260696501
  11334,  0.210189864, -0.269243062
  11335,  0.217092156, -0.277789623
  11336,  0.223994449, -0.286336154
  11337,  0.230896741, -0.294882715
  11338,  0.237799034, -0.303429276
  11339,  0.244701326, -0.311975837
  11340,  0.251603603, -0.320522368
  11341,  0.258505911, -0.329068929
  11342,  0.265408188,  -0.33761549
  11343,  0.272310495, -0.346162051
  11344,  0.279212773, -0.354708582
  11345,   0.28611508, -0.363255143
  11346,  0.293017358, -0.371801704
  11347,  0.299919635, -0.380348265
  11348,  0.306821942, -0.388894796
  11349,   0.31372422, -0.397441357
  11350,  0.320626527, -0.405987918
  11351,  0.327528805, -0.414534479
  11352,  0.334431112, -0.423081011
  11353,  0.341333389, -0.431627572
  11354,  0.348235697, -0.440174133
  11355,  0.355137974, -0.448720694
  11356,  0.362040281, -0.457267225
  11357,  0.368942559, -0.465813786
  11358,  0.375844836, -0.474360347
  11359,  0.382747144, -0.482906908
  11360,  0.389649421, -0.491453439
  11361, 0.0677271262, -0.0881887078
  11362,  0.074936837, -0.096768111
  11363, 0.0821465477, -0.105347514
  11364, 0.0893562511, -0.113926917
  11365, 0.0965659618, -0.122506313
  11366,  0.103775665, -0.131085724
  11367,  0.110985376, -0.139665127
  11368,  0.118195087, -0.148244515
  11369,   0.12540479, -0.156823918
  11370,  0.132614493, -0.165403321
  11371,  0.139824212, -0.173982725
  11372,  0.147033915, -0.182562128
  11373,  0.154243618, -0.191141531
  11374,  0.161453336, -0.199720934
  11375,   0.16866304, -0.208300337
  11376,  0.175872743,  -0.21687974
  11377,  0.183082461, -0.225459144
  11378,  0.190292165, -0.234038547
  11379,  0.197501868,  -0.24261795
  11380,  0.204711571, -0.251197338
  11381,   0.21192129, -0.259776741
  11382,  0.219130993, -0.268356144
  11383,  0.226340696, -0.276935548
  11384,  0.233550414, -0.285514951
  11385,  0.240760118, -0.294094354
  11386,  0.247969821, -0.302673757
  11387,  0.255179524,  -0.31125316
  11388,  0.262389243, -0.319832563
  11389,  0.269598961, -0.328411967
  11390,  0.276808649,  -0.33699137
  11391,  0.284018368, -0.345570773
  11392,  0.291228086, -0.354150176
  11393,  0.298437774, -0.362729579
  11394,  0.305647492, -0.371308982
  11395,  0.312857181, -0.379888386
  11396,  0.320066899, -0.388467789
  11397,  0.327276617, -0.397047192
  11398,  0.334486306, -0.405626565
  11399,  0.341696024, -0.414205968
  11400,  0.348905742, -0.422785372
  11401,  0.356115431, -0.431364775
  11402,  0.363325149, -0.439944178
  11403,  0.370534867, -0.448523581
  11404,  0.377744555, -0.457102984
  11405,  0.384954274, -0.465682387
  11406,  0.392163992, -0.474261791
  11407,   0.39937368, -0.482841194
  11408,  0.406583399, -0.491420597
  11409, 0.0701690316, -0.0865547806
  11410, 0.0776870623, -0.0951682255
  11411,  0.085205093, -0.103781663
  11412, 0.0927231237, -0.112395108
  11413,  0.100241154, -0.121008545
  11414,  0.107759185, -0.129621997
  11415,  0.115277208, -0.138235435
  11416,  0.122795239, -0.146848872
  11417,  0.130313277,  -0.15546231
  11418,    0.1378313, -0.164075762
  11419,  0.145349339, -0.172689199
  11420,  0.152867362, -0.181302637
  11421,    0.1603854, -0.189916089
  11422,  0.167903423, -0.198529527
  11423,  0.175421447, -0.207142964
  11424,  0.182939485, -0.215756416
  11425,  0.190457508, -0.224369854
  11426,  0.197975546, -0.232983291
  11427,  0.205493569, -0.241596743
  11428,  0.213011608, -0.250210166
  11429,  0.220529631, -0.258823633
  11430,  0.228047669, -0.267437071
  11431,  0.235565692, -0.276050508
  11432,   0.24308373, -0.284663945
  11433,  0.250601768, -0.293277383
  11434,  0.258119792,  -0.30189082
  11435,  0.265637815, -0.310504287
  11436,  0.273155838, -0.319117725
  11437,  0.280673891, -0.327731162
  11438,  0.288191915,   -0.3363446
  11439,  0.295709938, -0.344958037
  11440,  0.303227961, -0.353571475
  11441,  0.310745984, -0.362184912
  11442,  0.318264037, -0.370798379
  11443,  0.325782061, -0.379411817
  11444,  0.333300084, -0.388025254
  11445,  0.340818107, -0.396638691
  11446,   0.34833616, -0.405252129
  11447,  0.355854183, -0.413865566
  11448,  0.363372207, -0.422479033
  11449,   0.37089023, -0.431092471
  11450,  0.378408283, -0.439705908
  11451,  0.385926306, -0.448319346
  11452,   0.39344433, -0.456932783
  11453,  0.400962353, -0.465546221
  11454,  0.408480406, -0.474159688
  11455,  0.415998429, -0.482773125
  11456,  0.423516452, -0.491386563
  11457, 0.0725659207, -0.0848648548
  11458, 0.0803932101, -0.0935135037
  11459, 0.0882204995, -0.102162153
  11460, 0.0960477889, -0.110810801
  11461,  0.103875078,  -0.11945945
  11462,  0.111702368, -0.128108099
  11463,  0.119529665, -0.136756748
  11464,  0.127356946, -0.145405397
  11465,  0.135184243, -0.154054046
  11466,   0.14301154, -0.162702695
  11467,  0.150838822, -0.171351343
  11468,  0.158666119, -0.179999992
  11469,  0.166493401, -0.188648641
  11470,  0.174320698,  -0.19729729
  11471,   0.18214798, -0.205945939
  11472,  0.189975277, -0.214594588
  11473,  0.197802573, -0.223243237
  11474,  0.205629855, -0.231891885
  11475,  0.213457152, -0.240540534
  11476,  0.221284434, -0.249189183
  11477,  0.229111731, -0.257837832
  11478,  0.236939013, -0.266486466
  11479,   0.24476631,  -0.27513513
  11480,  0.252593607, -0.283783764
  11481,  0.260420889, -0.292432427
  11482,  0.268248171, -0.301081061
  11483,  0.276075482, -0.309729725
  11484,  0.283902764, -0.318378359
  11485,  0.291730046, -0.327027023
  11486,  0.299557328, -0.335675657
  11487,   0.30738464, -0.344324321
  11488,  0.315211922, -0.352972955
  11489,  0.323039204, -0.361621618
  11490,  0.330866516, -0.370270252
  11491,  0.338693798, -0.378918916
  11492,   0.34652108,  -0.38756755
  11493,  0.354348361, -0.396216214
  11494,  0.362175673, -0.404864848
  11495,  0.370002955, -0.413513511
  11496,  0.377830237, -0.422162145
  11497,  0.385657549, -0.430810809
  11498,  0.393484831, -0.439459443
  11499,  0.401312113, -0.448108107
  11500,  0.409139425, -0.456756741
  11501,  0.416966707, -0.465405405
  11502,  0.424793988, -0.474054039
  11503,   0.43262127, -0.482702702
  11504,  0.440448582, -0.491351336
  11505, 0.0749162957, -0.0831201673
  11506, 0.0830538124, -0.0918051675
  11507, 0.0911913365,  -0.10049016
  11508, 0.0993288532, -0.109175161
  11509,  0.107466377, -0.117860153
  11510,  0.115603894, -0.126545146
  11511,  0.123741411, -0.135230154
  11512,  0.131878927, -0.143915147
  11513,  0.140016451, -0.152600139
  11514,  0.148153976, -0.161285132
  11515,    0.1562915,  -0.16997014
  11516,  0.164429009, -0.178655133
  11517,  0.172566533, -0.187340125
  11518,  0.180704057, -0.196025118
  11519,  0.188841566, -0.204710126
  11520,  0.196979091, -0.213395119
  11521,  0.205116615, -0.222080112
  11522,  0.213254124, -0.230765104
  11523,  0.221391648, -0.239450112
  11524,  0.229529172, -0.248135105
  11525,  0.237666696, -0.256820112
  11526,  0.245804206, -0.265505105
  11527,  0.253941715, -0.274190098
  11528,  0.262079239, -0.282875091
  11529,  0.270216763, -0.291560084
  11530,  0.278354287, -0.300245076
  11531,  0.286491811, -0.308930069
  11532,  0.294629335, -0.317615062
  11533,   0.30276686, -0.326300085
  11534,  0.310904354, -0.334985077
  11535,  0.319041878,  -0.34367007
  11536,  0.327179402, -0.352355063
  11537,  0.335316926, -0.361040056
  11538,   0.34345445, -0.369725049
  11539,  0.351591974, -0.378410041
  11540,  0.359729499, -0.387095034
  11541,  0.367866993, -0.395780057
  11542,  0.376004517,  -0.40446505
  11543,  0.384142041, -0.413150042
  11544,  0.392279565, -0.421835035
  11545,  0.400417089, -0.430520028
  11546,  0.408554614, -0.439205021
  11547,  0.416692138, -0.447890013
  11548,  0.424829632, -0.456575006
  11549,  0.432967156, -0.465260029
  11550,   0.44110468, -0.473945022
  11551,  0.449242204, -0.482630014
  11552,  0.457379729, -0.491315007
  11553, 0.0772186965, -0.0813220069
  11554, 0.0856674463, -0.0900444686
  11555, 0.0941161886, -0.098766923
  11556,  0.102564938, -0.107489385
  11557,  0.111013688, -0.116211839
  11558,  0.119462438, -0.124934301
  11559,   0.12791118, -0.133656755
  11560,   0.13635993, -0.142379209
  11561,   0.14480868, -0.151101679
  11562,   0.15325743, -0.159824133
  11563,  0.161706179, -0.168546587
  11564,  0.170154929, -0.177269042
  11565,  0.178603679, -0.185991511
  11566,  0.187052429, -0.194713965
  11567,  0.195501179, -0.203436419
  11568,  0.203949928, -0.212158874
  11569,  0.212398663, -0.220881343
  11570,  0.220847413, -0.229603797
  11571,  0.229296163, -0.238326252
  11572,  0.237744913, -0.247048706
  11573,  0.246193662,  -0.25577116
  11574,  0.254642427, -0.264493614
  11575,  0.263091147, -0.273216099
  11576,  0.271539897, -0.281938553
  11577,  0.279988647, -0.290661007
  11578,  0.288437396, -0.299383461
  11579,  0.296886146, -0.308105916
  11580,  0.305334896,  -0.31682837
  11581,  0.313783646, -0.325550824
  11582,  0.322232395, -0.334273309
  11583,  0.330681145, -0.342995763
  11584,  0.339129895, -0.351718217
  11585,  0.347578645, -0.360440671
  11586,  0.356027395, -0.369163126
  11587,  0.364476144,  -0.37788558
  11588,  0.372924894, -0.386608034
  11589,  0.381373644, -0.395330489
  11590,  0.389822394, -0.404052973
  11591,  0.398271143, -0.412775427
  11592,  0.406719893, -0.421497881
  11593,  0.415168643, -0.430220336
  11594,  0.423617393,  -0.43894279
  11595,  0.432066143, -0.447665244
  11596,  0.440514892, -0.456387699
  11597,  0.448963612, -0.465110153
  11598,  0.457412362, -0.473832637
  11599,  0.465861112, -0.482555091
  11600,  0.474309862, -0.491277546
*Element, type=CPE4R
   1,    1,   17,  849,  168
   2,   17,   18,  850,  849
   3,   18,   19,  851,  850
   4,   19,   20,  852,  851
   5,   20,   21,  853,  852
   6,   21,   22,  854,  853
   7,   22,   23,  855,  854
   8,   23,   24,  856,  855
   9,   24,   25,  857,  856
  10,   25,   26,  858,  857
  11,   26,   27,  859,  858
  12,   27,   28,  860,  859
  13,   28,   29,  861,  860
  14,   29,   30,  862,  861
  15,   30,   31,  863,  862
  16,   31,   32,  864,  863
  17,   32,   33,  865,  864
  18,   33,   34,  866,  865
  19,   34,   35,  867,  866
  20,   35,   36,  868,  867
  21,   36,   37,  869,  868
  22,   37,   38,  870,  869
  23,   38,   39,  871,  870
  24,   39,   40,  872,  871
  25,   40,   41,  873,  872
  26,   41,   42,  874,  873
  27,   42,   43,  875,  874
  28,   43,   44,  876,  875
  29,   44,   45,  877,  876
  30,   45,   46,  878,  877
  31,   46,   47,  879,  878
  32,   47,   48,  880,  879
  33,   48,   49,  881,  880
  34,   49,   50,  882,  881
  35,   50,   51,  883,  882
  36,   51,   52,  884,  883
  37,   52,   53,  885,  884
  38,   53,   54,  886,  885
  39,   54,   55,  887,  886
  40,   55,   56,  888,  887
  41,   56,   57,  889,  888
  42,   57,   58,  890,  889
  43,   58,   59,  891,  890
  44,   59,   60,  892,  891
  45,   60,   61,  893,  892
  46,   61,   62,  894,  893
  47,   62,   63,  895,  894
  48,   63,   64,  896,  895
  49,   64,    2,   65,  896
  50,  168,  849,  897,  167
  51,  849,  850,  898,  897
  52,  850,  851,  899,  898
  53,  851,  852,  900,  899
  54,  852,  853,  901,  900
  55,  853,  854,  902,  901
  56,  854,  855,  903,  902
  57,  855,  856,  904,  903
  58,  856,  857,  905,  904
  59,  857,  858,  906,  905
  60,  858,  859,  907,  906
  61,  859,  860,  908,  907
  62,  860,  861,  909,  908
  63,  861,  862,  910,  909
  64,  862,  863,  911,  910
  65,  863,  864,  912,  911
  66,  864,  865,  913,  912
  67,  865,  866,  914,  913
  68,  866,  867,  915,  914
  69,  867,  868,  916,  915
  70,  868,  869,  917,  916
  71,  869,  870,  918,  917
  72,  870,  871,  919,  918
  73,  871,  872,  920,  919
  74,  872,  873,  921,  920
  75,  873,  874,  922,  921
  76,  874,  875,  923,  922
  77,  875,  876,  924,  923
  78,  876,  877,  925,  924
  79,  877,  878,  926,  925
  80,  878,  879,  927,  926
  81,  879,  880,  928,  927
  82,  880,  881,  929,  928
  83,  881,  882,  930,  929
  84,  882,  883,  931,  930
  85,  883,  884,  932,  931
  86,  884,  885,  933,  932
  87,  885,  886,  934,  933
  88,  886,  887,  935,  934
  89,  887,  888,  936,  935
  90,  888,  889,  937,  936
  91,  889,  890,  938,  937
  92,  890,  891,  939,  938
  93,  891,  892,  940,  939
  94,  892,  893,  941,  940
  95,  893,  894,  942,  941
  96,  894,  895,  943,  942
  97,  895,  896,  944,  943
  98,  896,   65,   66,  944
  99,  167,  897,  945,  166
 100,  897,  898,  946,  945
 101,  898,  899,  947,  946
 102,  899,  900,  948,  947
 103,  900,  901,  949,  948
 104,  901,  902,  950,  949
 105,  902,  903,  951,  950
 106,  903,  904,  952,  951
 107,  904,  905,  953,  952
 108,  905,  906,  954,  953
 109,  906,  907,  955,  954
 110,  907,  908,  956,  955
 111,  908,  909,  957,  956
 112,  909,  910,  958,  957
 113,  910,  911,  959,  958
 114,  911,  912,  960,  959
 115,  912,  913,  961,  960
 116,  913,  914,  962,  961
 117,  914,  915,  963,  962
 118,  915,  916,  964,  963
 119,  916,  917,  965,  964
 120,  917,  918,  966,  965
 121,  918,  919,  967,  966
 122,  919,  920,  968,  967
 123,  920,  921,  969,  968
 124,  921,  922,  970,  969
 125,  922,  923,  971,  970
 126,  923,  924,  972,  971
 127,  924,  925,  973,  972
 128,  925,  926,  974,  973
 129,  926,  927,  975,  974
 130,  927,  928,  976,  975
 131,  928,  929,  977,  976
 132,  929,  930,  978,  977
 133,  930,  931,  979,  978
 134,  931,  932,  980,  979
 135,  932,  933,  981,  980
 136,  933,  934,  982,  981
 137,  934,  935,  983,  982
 138,  935,  936,  984,  983
 139,  936,  937,  985,  984
 140,  937,  938,  986,  985
 141,  938,  939,  987,  986
 142,  939,  940,  988,  987
 143,  940,  941,  989,  988
 144,  941,  942,  990,  989
 145,  942,  943,  991,  990
 146,  943,  944,  992,  991
 147,  944,   66,   67,  992
 148,  166,  945,  993,  165
 149,  945,  946,  994,  993
 150,  946,  947,  995,  994
 151,  947,  948,  996,  995
 152,  948,  949,  997,  996
 153,  949,  950,  998,  997
 154,  950,  951,  999,  998
 155,  951,  952, 1000,  999
 156,  952,  953, 1001, 1000
 157,  953,  954, 1002, 1001
 158,  954,  955, 1003, 1002
 159,  955,  956, 1004, 1003
 160,  956,  957, 1005, 1004
 161,  957,  958, 1006, 1005
 162,  958,  959, 1007, 1006
 163,  959,  960, 1008, 1007
 164,  960,  961, 1009, 1008
 165,  961,  962, 1010, 1009
 166,  962,  963, 1011, 1010
 167,  963,  964, 1012, 1011
 168,  964,  965, 1013, 1012
 169,  965,  966, 1014, 1013
 170,  966,  967, 1015, 1014
 171,  967,  968, 1016, 1015
 172,  968,  969, 1017, 1016
 173,  969,  970, 1018, 1017
 174,  970,  971, 1019, 1018
 175,  971,  972, 1020, 1019
 176,  972,  973, 1021, 1020
 177,  973,  974, 1022, 1021
 178,  974,  975, 1023, 1022
 179,  975,  976, 1024, 1023
 180,  976,  977, 1025, 1024
 181,  977,  978, 1026, 1025
 182,  978,  979, 1027, 1026
 183,  979,  980, 1028, 1027
 184,  980,  981, 1029, 1028
 185,  981,  982, 1030, 1029
 186,  982,  983, 1031, 1030
 187,  983,  984, 1032, 1031
 188,  984,  985, 1033, 1032
 189,  985,  986, 1034, 1033
 190,  986,  987, 1035, 1034
 191,  987,  988, 1036, 1035
 192,  988,  989, 1037, 1036
 193,  989,  990, 1038, 1037
 194,  990,  991, 1039, 1038
 195,  991,  992, 1040, 1039
 196,  992,   67,   68, 1040
 197,  165,  993, 1041,  164
 198,  993,  994, 1042, 1041
 199,  994,  995, 1043, 1042
 200,  995,  996, 1044, 1043
 201,  996,  997, 1045, 1044
 202,  997,  998, 1046, 1045
 203,  998,  999, 1047, 1046
 204,  999, 1000, 1048, 1047
 205, 1000, 1001, 1049, 1048
 206, 1001, 1002, 1050, 1049
 207, 1002, 1003, 1051, 1050
 208, 1003, 1004, 1052, 1051
 209, 1004, 1005, 1053, 1052
 210, 1005, 1006, 1054, 1053
 211, 1006, 1007, 1055, 1054
 212, 1007, 1008, 1056, 1055
 213, 1008, 1009, 1057, 1056
 214, 1009, 1010, 1058, 1057
 215, 1010, 1011, 1059, 1058
 216, 1011, 1012, 1060, 1059
 217, 1012, 1013, 1061, 1060
 218, 1013, 1014, 1062, 1061
 219, 1014, 1015, 1063, 1062
 220, 1015, 1016, 1064, 1063
 221, 1016, 1017, 1065, 1064
 222, 1017, 1018, 1066, 1065
 223, 1018, 1019, 1067, 1066
 224, 1019, 1020, 1068, 1067
 225, 1020, 1021, 1069, 1068
 226, 1021, 1022, 1070, 1069
 227, 1022, 1023, 1071, 1070
 228, 1023, 1024, 1072, 1071
 229, 1024, 1025, 1073, 1072
 230, 1025, 1026, 1074, 1073
 231, 1026, 1027, 1075, 1074
 232, 1027, 1028, 1076, 1075
 233, 1028, 1029, 1077, 1076
 234, 1029, 1030, 1078, 1077
 235, 1030, 1031, 1079, 1078
 236, 1031, 1032, 1080, 1079
 237, 1032, 1033, 1081, 1080
 238, 1033, 1034, 1082, 1081
 239, 1034, 1035, 1083, 1082
 240, 1035, 1036, 1084, 1083
 241, 1036, 1037, 1085, 1084
 242, 1037, 1038, 1086, 1085
 243, 1038, 1039, 1087, 1086
 244, 1039, 1040, 1088, 1087
 245, 1040,   68,   69, 1088
 246,  164, 1041, 1089,  163
 247, 1041, 1042, 1090, 1089
 248, 1042, 1043, 1091, 1090
 249, 1043, 1044, 1092, 1091
 250, 1044, 1045, 1093, 1092
 251, 1045, 1046, 1094, 1093
 252, 1046, 1047, 1095, 1094
 253, 1047, 1048, 1096, 1095
 254, 1048, 1049, 1097, 1096
 255, 1049, 1050, 1098, 1097
 256, 1050, 1051, 1099, 1098
 257, 1051, 1052, 1100, 1099
 258, 1052, 1053, 1101, 1100
 259, 1053, 1054, 1102, 1101
 260, 1054, 1055, 1103, 1102
 261, 1055, 1056, 1104, 1103
 262, 1056, 1057, 1105, 1104
 263, 1057, 1058, 1106, 1105
 264, 1058, 1059, 1107, 1106
 265, 1059, 1060, 1108, 1107
 266, 1060, 1061, 1109, 1108
 267, 1061, 1062, 1110, 1109
 268, 1062, 1063, 1111, 1110
 269, 1063, 1064, 1112, 1111
 270, 1064, 1065, 1113, 1112
 271, 1065, 1066, 1114, 1113
 272, 1066, 1067, 1115, 1114
 273, 1067, 1068, 1116, 1115
 274, 1068, 1069, 1117, 1116
 275, 1069, 1070, 1118, 1117
 276, 1070, 1071, 1119, 1118
 277, 1071, 1072, 1120, 1119
 278, 1072, 1073, 1121, 1120
 279, 1073, 1074, 1122, 1121
 280, 1074, 1075, 1123, 1122
 281, 1075, 1076, 1124, 1123
 282, 1076, 1077, 1125, 1124
 283, 1077, 1078, 1126, 1125
 284, 1078, 1079, 1127, 1126
 285, 1079, 1080, 1128, 1127
 286, 1080, 1081, 1129, 1128
 287, 1081, 1082, 1130, 1129
 288, 1082, 1083, 1131, 1130
 289, 1083, 1084, 1132, 1131
 290, 1084, 1085, 1133, 1132
 291, 1085, 1086, 1134, 1133
 292, 1086, 1087, 1135, 1134
 293, 1087, 1088, 1136, 1135
 294, 1088,   69,   70, 1136
 295,  163, 1089, 1137,  162
 296, 1089, 1090, 1138, 1137
 297, 1090, 1091, 1139, 1138
 298, 1091, 1092, 1140, 1139
 299, 1092, 1093, 1141, 1140
 300, 1093, 1094, 1142, 1141
 301, 1094, 1095, 1143, 1142
 302, 1095, 1096, 1144, 1143
 303, 1096, 1097, 1145, 1144
 304, 1097, 1098, 1146, 1145
 305, 1098, 1099, 1147, 1146
 306, 1099, 1100, 1148, 1147
 307, 1100, 1101, 1149, 1148
 308, 1101, 1102, 1150, 1149
 309, 1102, 1103, 1151, 1150
 310, 1103, 1104, 1152, 1151
 311, 1104, 1105, 1153, 1152
 312, 1105, 1106, 1154, 1153
 313, 1106, 1107, 1155, 1154
 314, 1107, 1108, 1156, 1155
 315, 1108, 1109, 1157, 1156
 316, 1109, 1110, 1158, 1157
 317, 1110, 1111, 1159, 1158
 318, 1111, 1112, 1160, 1159
 319, 1112, 1113, 1161, 1160
 320, 1113, 1114, 1162, 1161
 321, 1114, 1115, 1163, 1162
 322, 1115, 1116, 1164, 1163
 323, 1116, 1117, 1165, 1164
 324, 1117, 1118, 1166, 1165
 325, 1118, 1119, 1167, 1166
 326, 1119, 1120, 1168, 1167
 327, 1120, 1121, 1169, 1168
 328, 1121, 1122, 1170, 1169
 329, 1122, 1123, 1171, 1170
 330, 1123, 1124, 1172, 1171
 331, 1124, 1125, 1173, 1172
 332, 1125, 1126, 1174, 1173
 333, 1126, 1127, 1175, 1174
 334, 1127, 1128, 1176, 1175
 335, 1128, 1129, 1177, 1176
 336, 1129, 1130, 1178, 1177
 337, 1130, 1131, 1179, 1178
 338, 1131, 1132, 1180, 1179
 339, 1132, 1133, 1181, 1180
 340, 1133, 1134, 1182, 1181
 341, 1134, 1135, 1183, 1182
 342, 1135, 1136, 1184, 1183
 343, 1136,   70,   71, 1184
 344,  162, 1137, 1185,  161
 345, 1137, 1138, 1186, 1185
 346, 1138, 1139, 1187, 1186
 347, 1139, 1140, 1188, 1187
 348, 1140, 1141, 1189, 1188
 349, 1141, 1142, 1190, 1189
 350, 1142, 1143, 1191, 1190
 351, 1143, 1144, 1192, 1191
 352, 1144, 1145, 1193, 1192
 353, 1145, 1146, 1194, 1193
 354, 1146, 1147, 1195, 1194
 355, 1147, 1148, 1196, 1195
 356, 1148, 1149, 1197, 1196
 357, 1149, 1150, 1198, 1197
 358, 1150, 1151, 1199, 1198
 359, 1151, 1152, 1200, 1199
 360, 1152, 1153, 1201, 1200
 361, 1153, 1154, 1202, 1201
 362, 1154, 1155, 1203, 1202
 363, 1155, 1156, 1204, 1203
 364, 1156, 1157, 1205, 1204
 365, 1157, 1158, 1206, 1205
 366, 1158, 1159, 1207, 1206
 367, 1159, 1160, 1208, 1207
 368, 1160, 1161, 1209, 1208
 369, 1161, 1162, 1210, 1209
 370, 1162, 1163, 1211, 1210
 371, 1163, 1164, 1212, 1211
 372, 1164, 1165, 1213, 1212
 373, 1165, 1166, 1214, 1213
 374, 1166, 1167, 1215, 1214
 375, 1167, 1168, 1216, 1215
 376, 1168, 1169, 1217, 1216
 377, 1169, 1170, 1218, 1217
 378, 1170, 1171, 1219, 1218
 379, 1171, 1172, 1220, 1219
 380, 1172, 1173, 1221, 1220
 381, 1173, 1174, 1222, 1221
 382, 1174, 1175, 1223, 1222
 383, 1175, 1176, 1224, 1223
 384, 1176, 1177, 1225, 1224
 385, 1177, 1178, 1226, 1225
 386, 1178, 1179, 1227, 1226
 387, 1179, 1180, 1228, 1227
 388, 1180, 1181, 1229, 1228
 389, 1181, 1182, 1230, 1229
 390, 1182, 1183, 1231, 1230
 391, 1183, 1184, 1232, 1231
 392, 1184,   71,   72, 1232
 393,  161, 1185, 1233,  160
 394, 1185, 1186, 1234, 1233
 395, 1186, 1187, 1235, 1234
 396, 1187, 1188, 1236, 1235
 397, 1188, 1189, 1237, 1236
 398, 1189, 1190, 1238, 1237
 399, 1190, 1191, 1239, 1238
 400, 1191, 1192, 1240, 1239
 401, 1192, 1193, 1241, 1240
 402, 1193, 1194, 1242, 1241
 403, 1194, 1195, 1243, 1242
 404, 1195, 1196, 1244, 1243
 405, 1196, 1197, 1245, 1244
 406, 1197, 1198, 1246, 1245
 407, 1198, 1199, 1247, 1246
 408, 1199, 1200, 1248, 1247
 409, 1200, 1201, 1249, 1248
 410, 1201, 1202, 1250, 1249
 411, 1202, 1203, 1251, 1250
 412, 1203, 1204, 1252, 1251
 413, 1204, 1205, 1253, 1252
 414, 1205, 1206, 1254, 1253
 415, 1206, 1207, 1255, 1254
 416, 1207, 1208, 1256, 1255
 417, 1208, 1209, 1257, 1256
 418, 1209, 1210, 1258, 1257
 419, 1210, 1211, 1259, 1258
 420, 1211, 1212, 1260, 1259
 421, 1212, 1213, 1261, 1260
 422, 1213, 1214, 1262, 1261
 423, 1214, 1215, 1263, 1262
 424, 1215, 1216, 1264, 1263
 425, 1216, 1217, 1265, 1264
 426, 1217, 1218, 1266, 1265
 427, 1218, 1219, 1267, 1266
 428, 1219, 1220, 1268, 1267
 429, 1220, 1221, 1269, 1268
 430, 1221, 1222, 1270, 1269
 431, 1222, 1223, 1271, 1270
 432, 1223, 1224, 1272, 1271
 433, 1224, 1225, 1273, 1272
 434, 1225, 1226, 1274, 1273
 435, 1226, 1227, 1275, 1274
 436, 1227, 1228, 1276, 1275
 437, 1228, 1229, 1277, 1276
 438, 1229, 1230, 1278, 1277
 439, 1230, 1231, 1279, 1278
 440, 1231, 1232, 1280, 1279
 441, 1232,   72,   73, 1280
 442,  160, 1233, 1281,  159
 443, 1233, 1234, 1282, 1281
 444, 1234, 1235, 1283, 1282
 445, 1235, 1236, 1284, 1283
 446, 1236, 1237, 1285, 1284
 447, 1237, 1238, 1286, 1285
 448, 1238, 1239, 1287, 1286
 449, 1239, 1240, 1288, 1287
 450, 1240, 1241, 1289, 1288
 451, 1241, 1242, 1290, 1289
 452, 1242, 1243, 1291, 1290
 453, 1243, 1244, 1292, 1291
 454, 1244, 1245, 1293, 1292
 455, 1245, 1246, 1294, 1293
 456, 1246, 1247, 1295, 1294
 457, 1247, 1248, 1296, 1295
 458, 1248, 1249, 1297, 1296
 459, 1249, 1250, 1298, 1297
 460, 1250, 1251, 1299, 1298
 461, 1251, 1252, 1300, 1299
 462, 1252, 1253, 1301, 1300
 463, 1253, 1254, 1302, 1301
 464, 1254, 1255, 1303, 1302
 465, 1255, 1256, 1304, 1303
 466, 1256, 1257, 1305, 1304
 467, 1257, 1258, 1306, 1305
 468, 1258, 1259, 1307, 1306
 469, 1259, 1260, 1308, 1307
 470, 1260, 1261, 1309, 1308
 471, 1261, 1262, 1310, 1309
 472, 1262, 1263, 1311, 1310
 473, 1263, 1264, 1312, 1311
 474, 1264, 1265, 1313, 1312
 475, 1265, 1266, 1314, 1313
 476, 1266, 1267, 1315, 1314
 477, 1267, 1268, 1316, 1315
 478, 1268, 1269, 1317, 1316
 479, 1269, 1270, 1318, 1317
 480, 1270, 1271, 1319, 1318
 481, 1271, 1272, 1320, 1319
 482, 1272, 1273, 1321, 1320
 483, 1273, 1274, 1322, 1321
 484, 1274, 1275, 1323, 1322
 485, 1275, 1276, 1324, 1323
 486, 1276, 1277, 1325, 1324
 487, 1277, 1278, 1326, 1325
 488, 1278, 1279, 1327, 1326
 489, 1279, 1280, 1328, 1327
 490, 1280,   73,   74, 1328
 491,  159, 1281, 1329,  158
 492, 1281, 1282, 1330, 1329
 493, 1282, 1283, 1331, 1330
 494, 1283, 1284, 1332, 1331
 495, 1284, 1285, 1333, 1332
 496, 1285, 1286, 1334, 1333
 497, 1286, 1287, 1335, 1334
 498, 1287, 1288, 1336, 1335
 499, 1288, 1289, 1337, 1336
 500, 1289, 1290, 1338, 1337
 501, 1290, 1291, 1339, 1338
 502, 1291, 1292, 1340, 1339
 503, 1292, 1293, 1341, 1340
 504, 1293, 1294, 1342, 1341
 505, 1294, 1295, 1343, 1342
 506, 1295, 1296, 1344, 1343
 507, 1296, 1297, 1345, 1344
 508, 1297, 1298, 1346, 1345
 509, 1298, 1299, 1347, 1346
 510, 1299, 1300, 1348, 1347
 511, 1300, 1301, 1349, 1348
 512, 1301, 1302, 1350, 1349
 513, 1302, 1303, 1351, 1350
 514, 1303, 1304, 1352, 1351
 515, 1304, 1305, 1353, 1352
 516, 1305, 1306, 1354, 1353
 517, 1306, 1307, 1355, 1354
 518, 1307, 1308, 1356, 1355
 519, 1308, 1309, 1357, 1356
 520, 1309, 1310, 1358, 1357
 521, 1310, 1311, 1359, 1358
 522, 1311, 1312, 1360, 1359
 523, 1312, 1313, 1361, 1360
 524, 1313, 1314, 1362, 1361
 525, 1314, 1315, 1363, 1362
 526, 1315, 1316, 1364, 1363
 527, 1316, 1317, 1365, 1364
 528, 1317, 1318, 1366, 1365
 529, 1318, 1319, 1367, 1366
 530, 1319, 1320, 1368, 1367
 531, 1320, 1321, 1369, 1368
 532, 1321, 1322, 1370, 1369
 533, 1322, 1323, 1371, 1370
 534, 1323, 1324, 1372, 1371
 535, 1324, 1325, 1373, 1372
 536, 1325, 1326, 1374, 1373
 537, 1326, 1327, 1375, 1374
 538, 1327, 1328, 1376, 1375
 539, 1328,   74,   75, 1376
 540,  158, 1329, 1377,  157
 541, 1329, 1330, 1378, 1377
 542, 1330, 1331, 1379, 1378
 543, 1331, 1332, 1380, 1379
 544, 1332, 1333, 1381, 1380
 545, 1333, 1334, 1382, 1381
 546, 1334, 1335, 1383, 1382
 547, 1335, 1336, 1384, 1383
 548, 1336, 1337, 1385, 1384
 549, 1337, 1338, 1386, 1385
 550, 1338, 1339, 1387, 1386
 551, 1339, 1340, 1388, 1387
 552, 1340, 1341, 1389, 1388
 553, 1341, 1342, 1390, 1389
 554, 1342, 1343, 1391, 1390
 555, 1343, 1344, 1392, 1391
 556, 1344, 1345, 1393, 1392
 557, 1345, 1346, 1394, 1393
 558, 1346, 1347, 1395, 1394
 559, 1347, 1348, 1396, 1395
 560, 1348, 1349, 1397, 1396
 561, 1349, 1350, 1398, 1397
 562, 1350, 1351, 1399, 1398
 563, 1351, 1352, 1400, 1399
 564, 1352, 1353, 1401, 1400
 565, 1353, 1354, 1402, 1401
 566, 1354, 1355, 1403, 1402
 567, 1355, 1356, 1404, 1403
 568, 1356, 1357, 1405, 1404
 569, 1357, 1358, 1406, 1405
 570, 1358, 1359, 1407, 1406
 571, 1359, 1360, 1408, 1407
 572, 1360, 1361, 1409, 1408
 573, 1361, 1362, 1410, 1409
 574, 1362, 1363, 1411, 1410
 575, 1363, 1364, 1412, 1411
 576, 1364, 1365, 1413, 1412
 577, 1365, 1366, 1414, 1413
 578, 1366, 1367, 1415, 1414
 579, 1367, 1368, 1416, 1415
 580, 1368, 1369, 1417, 1416
 581, 1369, 1370, 1418, 1417
 582, 1370, 1371, 1419, 1418
 583, 1371, 1372, 1420, 1419
 584, 1372, 1373, 1421, 1420
 585, 1373, 1374, 1422, 1421
 586, 1374, 1375, 1423, 1422
 587, 1375, 1376, 1424, 1423
 588, 1376,   75,   76, 1424
 589,  157, 1377, 1425,  156
 590, 1377, 1378, 1426, 1425
 591, 1378, 1379, 1427, 1426
 592, 1379, 1380, 1428, 1427
 593, 1380, 1381, 1429, 1428
 594, 1381, 1382, 1430, 1429
 595, 1382, 1383, 1431, 1430
 596, 1383, 1384, 1432, 1431
 597, 1384, 1385, 1433, 1432
 598, 1385, 1386, 1434, 1433
 599, 1386, 1387, 1435, 1434
 600, 1387, 1388, 1436, 1435
 601, 1388, 1389, 1437, 1436
 602, 1389, 1390, 1438, 1437
 603, 1390, 1391, 1439, 1438
 604, 1391, 1392, 1440, 1439
 605, 1392, 1393, 1441, 1440
 606, 1393, 1394, 1442, 1441
 607, 1394, 1395, 1443, 1442
 608, 1395, 1396, 1444, 1443
 609, 1396, 1397, 1445, 1444
 610, 1397, 1398, 1446, 1445
 611, 1398, 1399, 1447, 1446
 612, 1399, 1400, 1448, 1447
 613, 1400, 1401, 1449, 1448
 614, 1401, 1402, 1450, 1449
 615, 1402, 1403, 1451, 1450
 616, 1403, 1404, 1452, 1451
 617, 1404, 1405, 1453, 1452
 618, 1405, 1406, 1454, 1453
 619, 1406, 1407, 1455, 1454
 620, 1407, 1408, 1456, 1455
 621, 1408, 1409, 1457, 1456
 622, 1409, 1410, 1458, 1457
 623, 1410, 1411, 1459, 1458
 624, 1411, 1412, 1460, 1459
 625, 1412, 1413, 1461, 1460
 626, 1413, 1414, 1462, 1461
 627, 1414, 1415, 1463, 1462
 628, 1415, 1416, 1464, 1463
 629, 1416, 1417, 1465, 1464
 630, 1417, 1418, 1466, 1465
 631, 1418, 1419, 1467, 1466
 632, 1419, 1420, 1468, 1467
 633, 1420, 1421, 1469, 1468
 634, 1421, 1422, 1470, 1469
 635, 1422, 1423, 1471, 1470
 636, 1423, 1424, 1472, 1471
 637, 1424,   76,   77, 1472
 638,  156, 1425, 1473,  155
 639, 1425, 1426, 1474, 1473
 640, 1426, 1427, 1475, 1474
 641, 1427, 1428, 1476, 1475
 642, 1428, 1429, 1477, 1476
 643, 1429, 1430, 1478, 1477
 644, 1430, 1431, 1479, 1478
 645, 1431, 1432, 1480, 1479
 646, 1432, 1433, 1481, 1480
 647, 1433, 1434, 1482, 1481
 648, 1434, 1435, 1483, 1482
 649, 1435, 1436, 1484, 1483
 650, 1436, 1437, 1485, 1484
 651, 1437, 1438, 1486, 1485
 652, 1438, 1439, 1487, 1486
 653, 1439, 1440, 1488, 1487
 654, 1440, 1441, 1489, 1488
 655, 1441, 1442, 1490, 1489
 656, 1442, 1443, 1491, 1490
 657, 1443, 1444, 1492, 1491
 658, 1444, 1445, 1493, 1492
 659, 1445, 1446, 1494, 1493
 660, 1446, 1447, 1495, 1494
 661, 1447, 1448, 1496, 1495
 662, 1448, 1449, 1497, 1496
 663, 1449, 1450, 1498, 1497
 664, 1450, 1451, 1499, 1498
 665, 1451, 1452, 1500, 1499
 666, 1452, 1453, 1501, 1500
 667, 1453, 1454, 1502, 1501
 668, 1454, 1455, 1503, 1502
 669, 1455, 1456, 1504, 1503
 670, 1456, 1457, 1505, 1504
 671, 1457, 1458, 1506, 1505
 672, 1458, 1459, 1507, 1506
 673, 1459, 1460, 1508, 1507
 674, 1460, 1461, 1509, 1508
 675, 1461, 1462, 1510, 1509
 676, 1462, 1463, 1511, 1510
 677, 1463, 1464, 1512, 1511
 678, 1464, 1465, 1513, 1512
 679, 1465, 1466, 1514, 1513
 680, 1466, 1467, 1515, 1514
 681, 1467, 1468, 1516, 1515
 682, 1468, 1469, 1517, 1516
 683, 1469, 1470, 1518, 1517
 684, 1470, 1471, 1519, 1518
 685, 1471, 1472, 1520, 1519
 686, 1472,   77,   78, 1520
 687,  155, 1473, 1521,  154
 688, 1473, 1474, 1522, 1521
 689, 1474, 1475, 1523, 1522
 690, 1475, 1476, 1524, 1523
 691, 1476, 1477, 1525, 1524
 692, 1477, 1478, 1526, 1525
 693, 1478, 1479, 1527, 1526
 694, 1479, 1480, 1528, 1527
 695, 1480, 1481, 1529, 1528
 696, 1481, 1482, 1530, 1529
 697, 1482, 1483, 1531, 1530
 698, 1483, 1484, 1532, 1531
 699, 1484, 1485, 1533, 1532
 700, 1485, 1486, 1534, 1533
 701, 1486, 1487, 1535, 1534
 702, 1487, 1488, 1536, 1535
 703, 1488, 1489, 1537, 1536
 704, 1489, 1490, 1538, 1537
 705, 1490, 1491, 1539, 1538
 706, 1491, 1492, 1540, 1539
 707, 1492, 1493, 1541, 1540
 708, 1493, 1494, 1542, 1541
 709, 1494, 1495, 1543, 1542
 710, 1495, 1496, 1544, 1543
 711, 1496, 1497, 1545, 1544
 712, 1497, 1498, 1546, 1545
 713, 1498, 1499, 1547, 1546
 714, 1499, 1500, 1548, 1547
 715, 1500, 1501, 1549, 1548
 716, 1501, 1502, 1550, 1549
 717, 1502, 1503, 1551, 1550
 718, 1503, 1504, 1552, 1551
 719, 1504, 1505, 1553, 1552
 720, 1505, 1506, 1554, 1553
 721, 1506, 1507, 1555, 1554
 722, 1507, 1508, 1556, 1555
 723, 1508, 1509, 1557, 1556
 724, 1509, 1510, 1558, 1557
 725, 1510, 1511, 1559, 1558
 726, 1511, 1512, 1560, 1559
 727, 1512, 1513, 1561, 1560
 728, 1513, 1514, 1562, 1561
 729, 1514, 1515, 1563, 1562
 730, 1515, 1516, 1564, 1563
 731, 1516, 1517, 1565, 1564
 732, 1517, 1518, 1566, 1565
 733, 1518, 1519, 1567, 1566
 734, 1519, 1520, 1568, 1567
 735, 1520,   78,   79, 1568
 736,  154, 1521, 1569,  153
 737, 1521, 1522, 1570, 1569
 738, 1522, 1523, 1571, 1570
 739, 1523, 1524, 1572, 1571
 740, 1524, 1525, 1573, 1572
 741, 1525, 1526, 1574, 1573
 742, 1526, 1527, 1575, 1574
 743, 1527, 1528, 1576, 1575
 744, 1528, 1529, 1577, 1576
 745, 1529, 1530, 1578, 1577
 746, 1530, 1531, 1579, 1578
 747, 1531, 1532, 1580, 1579
 748, 1532, 1533, 1581, 1580
 749, 1533, 1534, 1582, 1581
 750, 1534, 1535, 1583, 1582
 751, 1535, 1536, 1584, 1583
 752, 1536, 1537, 1585, 1584
 753, 1537, 1538, 1586, 1585
 754, 1538, 1539, 1587, 1586
 755, 1539, 1540, 1588, 1587
 756, 1540, 1541, 1589, 1588
 757, 1541, 1542, 1590, 1589
 758, 1542, 1543, 1591, 1590
 759, 1543, 1544, 1592, 1591
 760, 1544, 1545, 1593, 1592
 761, 1545, 1546, 1594, 1593
 762, 1546, 1547, 1595, 1594
 763, 1547, 1548, 1596, 1595
 764, 1548, 1549, 1597, 1596
 765, 1549, 1550, 1598, 1597
 766, 1550, 1551, 1599, 1598
 767, 1551, 1552, 1600, 1599
 768, 1552, 1553, 1601, 1600
 769, 1553, 1554, 1602, 1601
 770, 1554, 1555, 1603, 1602
 771, 1555, 1556, 1604, 1603
 772, 1556, 1557, 1605, 1604
 773, 1557, 1558, 1606, 1605
 774, 1558, 1559, 1607, 1606
 775, 1559, 1560, 1608, 1607
 776, 1560, 1561, 1609, 1608
 777, 1561, 1562, 1610, 1609
 778, 1562, 1563, 1611, 1610
 779, 1563, 1564, 1612, 1611
 780, 1564, 1565, 1613, 1612
 781, 1565, 1566, 1614, 1613
 782, 1566, 1567, 1615, 1614
 783, 1567, 1568, 1616, 1615
 784, 1568,   79,   80, 1616
 785,  153, 1569, 1617,  152
 786, 1569, 1570, 1618, 1617
 787, 1570, 1571, 1619, 1618
 788, 1571, 1572, 1620, 1619
 789, 1572, 1573, 1621, 1620
 790, 1573, 1574, 1622, 1621
 791, 1574, 1575, 1623, 1622
 792, 1575, 1576, 1624, 1623
 793, 1576, 1577, 1625, 1624
 794, 1577, 1578, 1626, 1625
 795, 1578, 1579, 1627, 1626
 796, 1579, 1580, 1628, 1627
 797, 1580, 1581, 1629, 1628
 798, 1581, 1582, 1630, 1629
 799, 1582, 1583, 1631, 1630
 800, 1583, 1584, 1632, 1631
 801, 1584, 1585, 1633, 1632
 802, 1585, 1586, 1634, 1633
 803, 1586, 1587, 1635, 1634
 804, 1587, 1588, 1636, 1635
 805, 1588, 1589, 1637, 1636
 806, 1589, 1590, 1638, 1637
 807, 1590, 1591, 1639, 1638
 808, 1591, 1592, 1640, 1639
 809, 1592, 1593, 1641, 1640
 810, 1593, 1594, 1642, 1641
 811, 1594, 1595, 1643, 1642
 812, 1595, 1596, 1644, 1643
 813, 1596, 1597, 1645, 1644
 814, 1597, 1598, 1646, 1645
 815, 1598, 1599, 1647, 1646
 816, 1599, 1600, 1648, 1647
 817, 1600, 1601, 1649, 1648
 818, 1601, 1602, 1650, 1649
 819, 1602, 1603, 1651, 1650
 820, 1603, 1604, 1652, 1651
 821, 1604, 1605, 1653, 1652
 822, 1605, 1606, 1654, 1653
 823, 1606, 1607, 1655, 1654
 824, 1607, 1608, 1656, 1655
 825, 1608, 1609, 1657, 1656
 826, 1609, 1610, 1658, 1657
 827, 1610, 1611, 1659, 1658
 828, 1611, 1612, 1660, 1659
 829, 1612, 1613, 1661, 1660
 830, 1613, 1614, 1662, 1661
 831, 1614, 1615, 1663, 1662
 832, 1615, 1616, 1664, 1663
 833, 1616,   80,   81, 1664
 834,  152, 1617, 1665,  151
 835, 1617, 1618, 1666, 1665
 836, 1618, 1619, 1667, 1666
 837, 1619, 1620, 1668, 1667
 838, 1620, 1621, 1669, 1668
 839, 1621, 1622, 1670, 1669
 840, 1622, 1623, 1671, 1670
 841, 1623, 1624, 1672, 1671
 842, 1624, 1625, 1673, 1672
 843, 1625, 1626, 1674, 1673
 844, 1626, 1627, 1675, 1674
 845, 1627, 1628, 1676, 1675
 846, 1628, 1629, 1677, 1676
 847, 1629, 1630, 1678, 1677
 848, 1630, 1631, 1679, 1678
 849, 1631, 1632, 1680, 1679
 850, 1632, 1633, 1681, 1680
 851, 1633, 1634, 1682, 1681
 852, 1634, 1635, 1683, 1682
 853, 1635, 1636, 1684, 1683
 854, 1636, 1637, 1685, 1684
 855, 1637, 1638, 1686, 1685
 856, 1638, 1639, 1687, 1686
 857, 1639, 1640, 1688, 1687
 858, 1640, 1641, 1689, 1688
 859, 1641, 1642, 1690, 1689
 860, 1642, 1643, 1691, 1690
 861, 1643, 1644, 1692, 1691
 862, 1644, 1645, 1693, 1692
 863, 1645, 1646, 1694, 1693
 864, 1646, 1647, 1695, 1694
 865, 1647, 1648, 1696, 1695
 866, 1648, 1649, 1697, 1696
 867, 1649, 1650, 1698, 1697
 868, 1650, 1651, 1699, 1698
 869, 1651, 1652, 1700, 1699
 870, 1652, 1653, 1701, 1700
 871, 1653, 1654, 1702, 1701
 872, 1654, 1655, 1703, 1702
 873, 1655, 1656, 1704, 1703
 874, 1656, 1657, 1705, 1704
 875, 1657, 1658, 1706, 1705
 876, 1658, 1659, 1707, 1706
 877, 1659, 1660, 1708, 1707
 878, 1660, 1661, 1709, 1708
 879, 1661, 1662, 1710, 1709
 880, 1662, 1663, 1711, 1710
 881, 1663, 1664, 1712, 1711
 882, 1664,   81,   82, 1712
 883,  151, 1665, 1713,  150
 884, 1665, 1666, 1714, 1713
 885, 1666, 1667, 1715, 1714
 886, 1667, 1668, 1716, 1715
 887, 1668, 1669, 1717, 1716
 888, 1669, 1670, 1718, 1717
 889, 1670, 1671, 1719, 1718
 890, 1671, 1672, 1720, 1719
 891, 1672, 1673, 1721, 1720
 892, 1673, 1674, 1722, 1721
 893, 1674, 1675, 1723, 1722
 894, 1675, 1676, 1724, 1723
 895, 1676, 1677, 1725, 1724
 896, 1677, 1678, 1726, 1725
 897, 1678, 1679, 1727, 1726
 898, 1679, 1680, 1728, 1727
 899, 1680, 1681, 1729, 1728
 900, 1681, 1682, 1730, 1729
 901, 1682, 1683, 1731, 1730
 902, 1683, 1684, 1732, 1731
 903, 1684, 1685, 1733, 1732
 904, 1685, 1686, 1734, 1733
 905, 1686, 1687, 1735, 1734
 906, 1687, 1688, 1736, 1735
 907, 1688, 1689, 1737, 1736
 908, 1689, 1690, 1738, 1737
 909, 1690, 1691, 1739, 1738
 910, 1691, 1692, 1740, 1739
 911, 1692, 1693, 1741, 1740
 912, 1693, 1694, 1742, 1741
 913, 1694, 1695, 1743, 1742
 914, 1695, 1696, 1744, 1743
 915, 1696, 1697, 1745, 1744
 916, 1697, 1698, 1746, 1745
 917, 1698, 1699, 1747, 1746
 918, 1699, 1700, 1748, 1747
 919, 1700, 1701, 1749, 1748
 920, 1701, 1702, 1750, 1749
 921, 1702, 1703, 1751, 1750
 922, 1703, 1704, 1752, 1751
 923, 1704, 1705, 1753, 1752
 924, 1705, 1706, 1754, 1753
 925, 1706, 1707, 1755, 1754
 926, 1707, 1708, 1756, 1755
 927, 1708, 1709, 1757, 1756
 928, 1709, 1710, 1758, 1757
 929, 1710, 1711, 1759, 1758
 930, 1711, 1712, 1760, 1759
 931, 1712,   82,   83, 1760
 932,  150, 1713, 1761,  149
 933, 1713, 1714, 1762, 1761
 934, 1714, 1715, 1763, 1762
 935, 1715, 1716, 1764, 1763
 936, 1716, 1717, 1765, 1764
 937, 1717, 1718, 1766, 1765
 938, 1718, 1719, 1767, 1766
 939, 1719, 1720, 1768, 1767
 940, 1720, 1721, 1769, 1768
 941, 1721, 1722, 1770, 1769
 942, 1722, 1723, 1771, 1770
 943, 1723, 1724, 1772, 1771
 944, 1724, 1725, 1773, 1772
 945, 1725, 1726, 1774, 1773
 946, 1726, 1727, 1775, 1774
 947, 1727, 1728, 1776, 1775
 948, 1728, 1729, 1777, 1776
 949, 1729, 1730, 1778, 1777
 950, 1730, 1731, 1779, 1778
 951, 1731, 1732, 1780, 1779
 952, 1732, 1733, 1781, 1780
 953, 1733, 1734, 1782, 1781
 954, 1734, 1735, 1783, 1782
 955, 1735, 1736, 1784, 1783
 956, 1736, 1737, 1785, 1784
 957, 1737, 1738, 1786, 1785
 958, 1738, 1739, 1787, 1786
 959, 1739, 1740, 1788, 1787
 960, 1740, 1741, 1789, 1788
 961, 1741, 1742, 1790, 1789
 962, 1742, 1743, 1791, 1790
 963, 1743, 1744, 1792, 1791
 964, 1744, 1745, 1793, 1792
 965, 1745, 1746, 1794, 1793
 966, 1746, 1747, 1795, 1794
 967, 1747, 1748, 1796, 1795
 968, 1748, 1749, 1797, 1796
 969, 1749, 1750, 1798, 1797
 970, 1750, 1751, 1799, 1798
 971, 1751, 1752, 1800, 1799
 972, 1752, 1753, 1801, 1800
 973, 1753, 1754, 1802, 1801
 974, 1754, 1755, 1803, 1802
 975, 1755, 1756, 1804, 1803
 976, 1756, 1757, 1805, 1804
 977, 1757, 1758, 1806, 1805
 978, 1758, 1759, 1807, 1806
 979, 1759, 1760, 1808, 1807
 980, 1760,   83,   84, 1808
 981,  149, 1761, 1809,  148
 982, 1761, 1762, 1810, 1809
 983, 1762, 1763, 1811, 1810
 984, 1763, 1764, 1812, 1811
 985, 1764, 1765, 1813, 1812
 986, 1765, 1766, 1814, 1813
 987, 1766, 1767, 1815, 1814
 988, 1767, 1768, 1816, 1815
 989, 1768, 1769, 1817, 1816
 990, 1769, 1770, 1818, 1817
 991, 1770, 1771, 1819, 1818
 992, 1771, 1772, 1820, 1819
 993, 1772, 1773, 1821, 1820
 994, 1773, 1774, 1822, 1821
 995, 1774, 1775, 1823, 1822
 996, 1775, 1776, 1824, 1823
 997, 1776, 1777, 1825, 1824
 998, 1777, 1778, 1826, 1825
 999, 1778, 1779, 1827, 1826
1000, 1779, 1780, 1828, 1827
1001, 1780, 1781, 1829, 1828
1002, 1781, 1782, 1830, 1829
1003, 1782, 1783, 1831, 1830
1004, 1783, 1784, 1832, 1831
1005, 1784, 1785, 1833, 1832
1006, 1785, 1786, 1834, 1833
1007, 1786, 1787, 1835, 1834
1008, 1787, 1788, 1836, 1835
1009, 1788, 1789, 1837, 1836
1010, 1789, 1790, 1838, 1837
1011, 1790, 1791, 1839, 1838
1012, 1791, 1792, 1840, 1839
1013, 1792, 1793, 1841, 1840
1014, 1793, 1794, 1842, 1841
1015, 1794, 1795, 1843, 1842
1016, 1795, 1796, 1844, 1843
1017, 1796, 1797, 1845, 1844
1018, 1797, 1798, 1846, 1845
1019, 1798, 1799, 1847, 1846
1020, 1799, 1800, 1848, 1847
1021, 1800, 1801, 1849, 1848
1022, 1801, 1802, 1850, 1849
1023, 1802, 1803, 1851, 1850
1024, 1803, 1804, 1852, 1851
1025, 1804, 1805, 1853, 1852
1026, 1805, 1806, 1854, 1853
1027, 1806, 1807, 1855, 1854
1028, 1807, 1808, 1856, 1855
1029, 1808,   84,   85, 1856
1030,  148, 1809, 1857,  147
1031, 1809, 1810, 1858, 1857
1032, 1810, 1811, 1859, 1858
1033, 1811, 1812, 1860, 1859
1034, 1812, 1813, 1861, 1860
1035, 1813, 1814, 1862, 1861
1036, 1814, 1815, 1863, 1862
1037, 1815, 1816, 1864, 1863
1038, 1816, 1817, 1865, 1864
1039, 1817, 1818, 1866, 1865
1040, 1818, 1819, 1867, 1866
1041, 1819, 1820, 1868, 1867
1042, 1820, 1821, 1869, 1868
1043, 1821, 1822, 1870, 1869
1044, 1822, 1823, 1871, 1870
1045, 1823, 1824, 1872, 1871
1046, 1824, 1825, 1873, 1872
1047, 1825, 1826, 1874, 1873
1048, 1826, 1827, 1875, 1874
1049, 1827, 1828, 1876, 1875
1050, 1828, 1829, 1877, 1876
1051, 1829, 1830, 1878, 1877
1052, 1830, 1831, 1879, 1878
1053, 1831, 1832, 1880, 1879
1054, 1832, 1833, 1881, 1880
1055, 1833, 1834, 1882, 1881
1056, 1834, 1835, 1883, 1882
1057, 1835, 1836, 1884, 1883
1058, 1836, 1837, 1885, 1884
1059, 1837, 1838, 1886, 1885
1060, 1838, 1839, 1887, 1886
1061, 1839, 1840, 1888, 1887
1062, 1840, 1841, 1889, 1888
1063, 1841, 1842, 1890, 1889
1064, 1842, 1843, 1891, 1890
1065, 1843, 1844, 1892, 1891
1066, 1844, 1845, 1893, 1892
1067, 1845, 1846, 1894, 1893
1068, 1846, 1847, 1895, 1894
1069, 1847, 1848, 1896, 1895
1070, 1848, 1849, 1897, 1896
1071, 1849, 1850, 1898, 1897
1072, 1850, 1851, 1899, 1898
1073, 1851, 1852, 1900, 1899
1074, 1852, 1853, 1901, 1900
1075, 1853, 1854, 1902, 1901
1076, 1854, 1855, 1903, 1902
1077, 1855, 1856, 1904, 1903
1078, 1856,   85,   86, 1904
1079,  147, 1857, 1905,  146
1080, 1857, 1858, 1906, 1905
1081, 1858, 1859, 1907, 1906
1082, 1859, 1860, 1908, 1907
1083, 1860, 1861, 1909, 1908
1084, 1861, 1862, 1910, 1909
1085, 1862, 1863, 1911, 1910
1086, 1863, 1864, 1912, 1911
1087, 1864, 1865, 1913, 1912
1088, 1865, 1866, 1914, 1913
1089, 1866, 1867, 1915, 1914
1090, 1867, 1868, 1916, 1915
1091, 1868, 1869, 1917, 1916
1092, 1869, 1870, 1918, 1917
1093, 1870, 1871, 1919, 1918
1094, 1871, 1872, 1920, 1919
1095, 1872, 1873, 1921, 1920
1096, 1873, 1874, 1922, 1921
1097, 1874, 1875, 1923, 1922
1098, 1875, 1876, 1924, 1923
1099, 1876, 1877, 1925, 1924
1100, 1877, 1878, 1926, 1925
1101, 1878, 1879, 1927, 1926
1102, 1879, 1880, 1928, 1927
1103, 1880, 1881, 1929, 1928
1104, 1881, 1882, 1930, 1929
1105, 1882, 1883, 1931, 1930
1106, 1883, 1884, 1932, 1931
1107, 1884, 1885, 1933, 1932
1108, 1885, 1886, 1934, 1933
1109, 1886, 1887, 1935, 1934
1110, 1887, 1888, 1936, 1935
1111, 1888, 1889, 1937, 1936
1112, 1889, 1890, 1938, 1937
1113, 1890, 1891, 1939, 1938
1114, 1891, 1892, 1940, 1939
1115, 1892, 1893, 1941, 1940
1116, 1893, 1894, 1942, 1941
1117, 1894, 1895, 1943, 1942
1118, 1895, 1896, 1944, 1943
1119, 1896, 1897, 1945, 1944
1120, 1897, 1898, 1946, 1945
1121, 1898, 1899, 1947, 1946
1122, 1899, 1900, 1948, 1947
1123, 1900, 1901, 1949, 1948
1124, 1901, 1902, 1950, 1949
1125, 1902, 1903, 1951, 1950
1126, 1903, 1904, 1952, 1951
1127, 1904,   86,   87, 1952
1128,  146, 1905, 1953,  145
1129, 1905, 1906, 1954, 1953
1130, 1906, 1907, 1955, 1954
1131, 1907, 1908, 1956, 1955
1132, 1908, 1909, 1957, 1956
1133, 1909, 1910, 1958, 1957
1134, 1910, 1911, 1959, 1958
1135, 1911, 1912, 1960, 1959
1136, 1912, 1913, 1961, 1960
1137, 1913, 1914, 1962, 1961
1138, 1914, 1915, 1963, 1962
1139, 1915, 1916, 1964, 1963
1140, 1916, 1917, 1965, 1964
1141, 1917, 1918, 1966, 1965
1142, 1918, 1919, 1967, 1966
1143, 1919, 1920, 1968, 1967
1144, 1920, 1921, 1969, 1968
1145, 1921, 1922, 1970, 1969
1146, 1922, 1923, 1971, 1970
1147, 1923, 1924, 1972, 1971
1148, 1924, 1925, 1973, 1972
1149, 1925, 1926, 1974, 1973
1150, 1926, 1927, 1975, 1974
1151, 1927, 1928, 1976, 1975
1152, 1928, 1929, 1977, 1976
1153, 1929, 1930, 1978, 1977
1154, 1930, 1931, 1979, 1978
1155, 1931, 1932, 1980, 1979
1156, 1932, 1933, 1981, 1980
1157, 1933, 1934, 1982, 1981
1158, 1934, 1935, 1983, 1982
1159, 1935, 1936, 1984, 1983
1160, 1936, 1937, 1985, 1984
1161, 1937, 1938, 1986, 1985
1162, 1938, 1939, 1987, 1986
1163, 1939, 1940, 1988, 1987
1164, 1940, 1941, 1989, 1988
1165, 1941, 1942, 1990, 1989
1166, 1942, 1943, 1991, 1990
1167, 1943, 1944, 1992, 1991
1168, 1944, 1945, 1993, 1992
1169, 1945, 1946, 1994, 1993
1170, 1946, 1947, 1995, 1994
1171, 1947, 1948, 1996, 1995
1172, 1948, 1949, 1997, 1996
1173, 1949, 1950, 1998, 1997
1174, 1950, 1951, 1999, 1998
1175, 1951, 1952, 2000, 1999
1176, 1952,   87,   88, 2000
1177,  145, 1953, 2001,  144
1178, 1953, 1954, 2002, 2001
1179, 1954, 1955, 2003, 2002
1180, 1955, 1956, 2004, 2003
1181, 1956, 1957, 2005, 2004
1182, 1957, 1958, 2006, 2005
1183, 1958, 1959, 2007, 2006
1184, 1959, 1960, 2008, 2007
1185, 1960, 1961, 2009, 2008
1186, 1961, 1962, 2010, 2009
1187, 1962, 1963, 2011, 2010
1188, 1963, 1964, 2012, 2011
1189, 1964, 1965, 2013, 2012
1190, 1965, 1966, 2014, 2013
1191, 1966, 1967, 2015, 2014
1192, 1967, 1968, 2016, 2015
1193, 1968, 1969, 2017, 2016
1194, 1969, 1970, 2018, 2017
1195, 1970, 1971, 2019, 2018
1196, 1971, 1972, 2020, 2019
1197, 1972, 1973, 2021, 2020
1198, 1973, 1974, 2022, 2021
1199, 1974, 1975, 2023, 2022
1200, 1975, 1976, 2024, 2023
1201, 1976, 1977, 2025, 2024
1202, 1977, 1978, 2026, 2025
1203, 1978, 1979, 2027, 2026
1204, 1979, 1980, 2028, 2027
1205, 1980, 1981, 2029, 2028
1206, 1981, 1982, 2030, 2029
1207, 1982, 1983, 2031, 2030
1208, 1983, 1984, 2032, 2031
1209, 1984, 1985, 2033, 2032
1210, 1985, 1986, 2034, 2033
1211, 1986, 1987, 2035, 2034
1212, 1987, 1988, 2036, 2035
1213, 1988, 1989, 2037, 2036
1214, 1989, 1990, 2038, 2037
1215, 1990, 1991, 2039, 2038
1216, 1991, 1992, 2040, 2039
1217, 1992, 1993, 2041, 2040
1218, 1993, 1994, 2042, 2041
1219, 1994, 1995, 2043, 2042
1220, 1995, 1996, 2044, 2043
1221, 1996, 1997, 2045, 2044
1222, 1997, 1998, 2046, 2045
1223, 1998, 1999, 2047, 2046
1224, 1999, 2000, 2048, 2047
1225, 2000,   88,   89, 2048
1226,  144, 2001, 2049,  143
1227, 2001, 2002, 2050, 2049
1228, 2002, 2003, 2051, 2050
1229, 2003, 2004, 2052, 2051
1230, 2004, 2005, 2053, 2052
1231, 2005, 2006, 2054, 2053
1232, 2006, 2007, 2055, 2054
1233, 2007, 2008, 2056, 2055
1234, 2008, 2009, 2057, 2056
1235, 2009, 2010, 2058, 2057
1236, 2010, 2011, 2059, 2058
1237, 2011, 2012, 2060, 2059
1238, 2012, 2013, 2061, 2060
1239, 2013, 2014, 2062, 2061
1240, 2014, 2015, 2063, 2062
1241, 2015, 2016, 2064, 2063
1242, 2016, 2017, 2065, 2064
1243, 2017, 2018, 2066, 2065
1244, 2018, 2019, 2067, 2066
1245, 2019, 2020, 2068, 2067
1246, 2020, 2021, 2069, 2068
1247, 2021, 2022, 2070, 2069
1248, 2022, 2023, 2071, 2070
1249, 2023, 2024, 2072, 2071
1250, 2024, 2025, 2073, 2072
1251, 2025, 2026, 2074, 2073
1252, 2026, 2027, 2075, 2074
1253, 2027, 2028, 2076, 2075
1254, 2028, 2029, 2077, 2076
1255, 2029, 2030, 2078, 2077
1256, 2030, 2031, 2079, 2078
1257, 2031, 2032, 2080, 2079
1258, 2032, 2033, 2081, 2080
1259, 2033, 2034, 2082, 2081
1260, 2034, 2035, 2083, 2082
1261, 2035, 2036, 2084, 2083
1262, 2036, 2037, 2085, 2084
1263, 2037, 2038, 2086, 2085
1264, 2038, 2039, 2087, 2086
1265, 2039, 2040, 2088, 2087
1266, 2040, 2041, 2089, 2088
1267, 2041, 2042, 2090, 2089
1268, 2042, 2043, 2091, 2090
1269, 2043, 2044, 2092, 2091
1270, 2044, 2045, 2093, 2092
1271, 2045, 2046, 2094, 2093
1272, 2046, 2047, 2095, 2094
1273, 2047, 2048, 2096, 2095
1274, 2048,   89,   90, 2096
1275,  143, 2049, 2097,  142
1276, 2049, 2050, 2098, 2097
1277, 2050, 2051, 2099, 2098
1278, 2051, 2052, 2100, 2099
1279, 2052, 2053, 2101, 2100
1280, 2053, 2054, 2102, 2101
1281, 2054, 2055, 2103, 2102
1282, 2055, 2056, 2104, 2103
1283, 2056, 2057, 2105, 2104
1284, 2057, 2058, 2106, 2105
1285, 2058, 2059, 2107, 2106
1286, 2059, 2060, 2108, 2107
1287, 2060, 2061, 2109, 2108
1288, 2061, 2062, 2110, 2109
1289, 2062, 2063, 2111, 2110
1290, 2063, 2064, 2112, 2111
1291, 2064, 2065, 2113, 2112
1292, 2065, 2066, 2114, 2113
1293, 2066, 2067, 2115, 2114
1294, 2067, 2068, 2116, 2115
1295, 2068, 2069, 2117, 2116
1296, 2069, 2070, 2118, 2117
1297, 2070, 2071, 2119, 2118
1298, 2071, 2072, 2120, 2119
1299, 2072, 2073, 2121, 2120
1300, 2073, 2074, 2122, 2121
1301, 2074, 2075, 2123, 2122
1302, 2075, 2076, 2124, 2123
1303, 2076, 2077, 2125, 2124
1304, 2077, 2078, 2126, 2125
1305, 2078, 2079, 2127, 2126
1306, 2079, 2080, 2128, 2127
1307, 2080, 2081, 2129, 2128
1308, 2081, 2082, 2130, 2129
1309, 2082, 2083, 2131, 2130
1310, 2083, 2084, 2132, 2131
1311, 2084, 2085, 2133, 2132
1312, 2085, 2086, 2134, 2133
1313, 2086, 2087, 2135, 2134
1314, 2087, 2088, 2136, 2135
1315, 2088, 2089, 2137, 2136
1316, 2089, 2090, 2138, 2137
1317, 2090, 2091, 2139, 2138
1318, 2091, 2092, 2140, 2139
1319, 2092, 2093, 2141, 2140
1320, 2093, 2094, 2142, 2141
1321, 2094, 2095, 2143, 2142
1322, 2095, 2096, 2144, 2143
1323, 2096,   90,   91, 2144
1324,  142, 2097, 2145,  141
1325, 2097, 2098, 2146, 2145
1326, 2098, 2099, 2147, 2146
1327, 2099, 2100, 2148, 2147
1328, 2100, 2101, 2149, 2148
1329, 2101, 2102, 2150, 2149
1330, 2102, 2103, 2151, 2150
1331, 2103, 2104, 2152, 2151
1332, 2104, 2105, 2153, 2152
1333, 2105, 2106, 2154, 2153
1334, 2106, 2107, 2155, 2154
1335, 2107, 2108, 2156, 2155
1336, 2108, 2109, 2157, 2156
1337, 2109, 2110, 2158, 2157
1338, 2110, 2111, 2159, 2158
1339, 2111, 2112, 2160, 2159
1340, 2112, 2113, 2161, 2160
1341, 2113, 2114, 2162, 2161
1342, 2114, 2115, 2163, 2162
1343, 2115, 2116, 2164, 2163
1344, 2116, 2117, 2165, 2164
1345, 2117, 2118, 2166, 2165
1346, 2118, 2119, 2167, 2166
1347, 2119, 2120, 2168, 2167
1348, 2120, 2121, 2169, 2168
1349, 2121, 2122, 2170, 2169
1350, 2122, 2123, 2171, 2170
1351, 2123, 2124, 2172, 2171
1352, 2124, 2125, 2173, 2172
1353, 2125, 2126, 2174, 2173
1354, 2126, 2127, 2175, 2174
1355, 2127, 2128, 2176, 2175
1356, 2128, 2129, 2177, 2176
1357, 2129, 2130, 2178, 2177
1358, 2130, 2131, 2179, 2178
1359, 2131, 2132, 2180, 2179
1360, 2132, 2133, 2181, 2180
1361, 2133, 2134, 2182, 2181
1362, 2134, 2135, 2183, 2182
1363, 2135, 2136, 2184, 2183
1364, 2136, 2137, 2185, 2184
1365, 2137, 2138, 2186, 2185
1366, 2138, 2139, 2187, 2186
1367, 2139, 2140, 2188, 2187
1368, 2140, 2141, 2189, 2188
1369, 2141, 2142, 2190, 2189
1370, 2142, 2143, 2191, 2190
1371, 2143, 2144, 2192, 2191
1372, 2144,   91,   92, 2192
1373,  141, 2145,  140,    4
1374, 2145, 2146,  139,  140
1375, 2146, 2147,  138,  139
1376, 2147, 2148,  137,  138
1377, 2148, 2149,  136,  137
1378, 2149, 2150,  135,  136
1379, 2150, 2151,  134,  135
1380, 2151, 2152,  133,  134
1381, 2152, 2153,  132,  133
1382, 2153, 2154,  131,  132
1383, 2154, 2155,  130,  131
1384, 2155, 2156,  129,  130
1385, 2156, 2157,  128,  129
1386, 2157, 2158,  127,  128
1387, 2158, 2159,  126,  127
1388, 2159, 2160,  125,  126
1389, 2160, 2161,  124,  125
1390, 2161, 2162,  123,  124
1391, 2162, 2163,  122,  123
1392, 2163, 2164,  121,  122
1393, 2164, 2165,  120,  121
1394, 2165, 2166,  119,  120
1395, 2166, 2167,  118,  119
1396, 2167, 2168,  117,  118
1397, 2168, 2169,  116,  117
1398, 2169, 2170,  115,  116
1399, 2170, 2171,  114,  115
1400, 2171, 2172,  113,  114
1401, 2172, 2173,  112,  113
1402, 2173, 2174,  111,  112
1403, 2174, 2175,  110,  111
1404, 2175, 2176,  109,  110
1405, 2176, 2177,  108,  109
1406, 2177, 2178,  107,  108
1407, 2178, 2179,  106,  107
1408, 2179, 2180,  105,  106
1409, 2180, 2181,  104,  105
1410, 2181, 2182,  103,  104
1411, 2182, 2183,  102,  103
1412, 2183, 2184,  101,  102
1413, 2184, 2185,  100,  101
1414, 2185, 2186,   99,  100
1415, 2186, 2187,   98,   99
1416, 2187, 2188,   97,   98
1417, 2188, 2189,   96,   97
1418, 2189, 2190,   95,   96
1419, 2190, 2191,   94,   95
1420, 2191, 2192,   93,   94
1421, 2192,   92,    3,   93
1422,    2,   64, 2193,  272
1423,   64,   63, 2194, 2193
1424,   63,   62, 2195, 2194
1425,   62,   61, 2196, 2195
1426,   61,   60, 2197, 2196
1427,   60,   59, 2198, 2197
1428,   59,   58, 2199, 2198
1429,   58,   57, 2200, 2199
1430,   57,   56, 2201, 2200
1431,   56,   55, 2202, 2201
1432,   55,   54, 2203, 2202
1433,   54,   53, 2204, 2203
1434,   53,   52, 2205, 2204
1435,   52,   51, 2206, 2205
1436,   51,   50, 2207, 2206
1437,   50,   49, 2208, 2207
1438,   49,   48, 2209, 2208
1439,   48,   47, 2210, 2209
1440,   47,   46, 2211, 2210
1441,   46,   45, 2212, 2211
1442,   45,   44, 2213, 2212
1443,   44,   43, 2214, 2213
1444,   43,   42, 2215, 2214
1445,   42,   41, 2216, 2215
1446,   41,   40, 2217, 2216
1447,   40,   39, 2218, 2217
1448,   39,   38, 2219, 2218
1449,   38,   37, 2220, 2219
1450,   37,   36, 2221, 2220
1451,   36,   35, 2222, 2221
1452,   35,   34, 2223, 2222
1453,   34,   33, 2224, 2223
1454,   33,   32, 2225, 2224
1455,   32,   31, 2226, 2225
1456,   31,   30, 2227, 2226
1457,   30,   29, 2228, 2227
1458,   29,   28, 2229, 2228
1459,   28,   27, 2230, 2229
1460,   27,   26, 2231, 2230
1461,   26,   25, 2232, 2231
1462,   25,   24, 2233, 2232
1463,   24,   23, 2234, 2233
1464,   23,   22, 2235, 2234
1465,   22,   21, 2236, 2235
1466,   21,   20, 2237, 2236
1467,   20,   19, 2238, 2237
1468,   19,   18, 2239, 2238
1469,   18,   17, 2240, 2239
1470,   17,    1,  169, 2240
1471,  272, 2193, 2241,  271
1472, 2193, 2194, 2242, 2241
1473, 2194, 2195, 2243, 2242
1474, 2195, 2196, 2244, 2243
1475, 2196, 2197, 2245, 2244
1476, 2197, 2198, 2246, 2245
1477, 2198, 2199, 2247, 2246
1478, 2199, 2200, 2248, 2247
1479, 2200, 2201, 2249, 2248
1480, 2201, 2202, 2250, 2249
1481, 2202, 2203, 2251, 2250
1482, 2203, 2204, 2252, 2251
1483, 2204, 2205, 2253, 2252
1484, 2205, 2206, 2254, 2253
1485, 2206, 2207, 2255, 2254
1486, 2207, 2208, 2256, 2255
1487, 2208, 2209, 2257, 2256
1488, 2209, 2210, 2258, 2257
1489, 2210, 2211, 2259, 2258
1490, 2211, 2212, 2260, 2259
1491, 2212, 2213, 2261, 2260
1492, 2213, 2214, 2262, 2261
1493, 2214, 2215, 2263, 2262
1494, 2215, 2216, 2264, 2263
1495, 2216, 2217, 2265, 2264
1496, 2217, 2218, 2266, 2265
1497, 2218, 2219, 2267, 2266
1498, 2219, 2220, 2268, 2267
1499, 2220, 2221, 2269, 2268
1500, 2221, 2222, 2270, 2269
1501, 2222, 2223, 2271, 2270
1502, 2223, 2224, 2272, 2271
1503, 2224, 2225, 2273, 2272
1504, 2225, 2226, 2274, 2273
1505, 2226, 2227, 2275, 2274
1506, 2227, 2228, 2276, 2275
1507, 2228, 2229, 2277, 2276
1508, 2229, 2230, 2278, 2277
1509, 2230, 2231, 2279, 2278
1510, 2231, 2232, 2280, 2279
1511, 2232, 2233, 2281, 2280
1512, 2233, 2234, 2282, 2281
1513, 2234, 2235, 2283, 2282
1514, 2235, 2236, 2284, 2283
1515, 2236, 2237, 2285, 2284
1516, 2237, 2238, 2286, 2285
1517, 2238, 2239, 2287, 2286
1518, 2239, 2240, 2288, 2287
1519, 2240,  169,  170, 2288
1520,  271, 2241, 2289,  270
1521, 2241, 2242, 2290, 2289
1522, 2242, 2243, 2291, 2290
1523, 2243, 2244, 2292, 2291
1524, 2244, 2245, 2293, 2292
1525, 2245, 2246, 2294, 2293
1526, 2246, 2247, 2295, 2294
1527, 2247, 2248, 2296, 2295
1528, 2248, 2249, 2297, 2296
1529, 2249, 2250, 2298, 2297
1530, 2250, 2251, 2299, 2298
1531, 2251, 2252, 2300, 2299
1532, 2252, 2253, 2301, 2300
1533, 2253, 2254, 2302, 2301
1534, 2254, 2255, 2303, 2302
1535, 2255, 2256, 2304, 2303
1536, 2256, 2257, 2305, 2304
1537, 2257, 2258, 2306, 2305
1538, 2258, 2259, 2307, 2306
1539, 2259, 2260, 2308, 2307
1540, 2260, 2261, 2309, 2308
1541, 2261, 2262, 2310, 2309
1542, 2262, 2263, 2311, 2310
1543, 2263, 2264, 2312, 2311
1544, 2264, 2265, 2313, 2312
1545, 2265, 2266, 2314, 2313
1546, 2266, 2267, 2315, 2314
1547, 2267, 2268, 2316, 2315
1548, 2268, 2269, 2317, 2316
1549, 2269, 2270, 2318, 2317
1550, 2270, 2271, 2319, 2318
1551, 2271, 2272, 2320, 2319
1552, 2272, 2273, 2321, 2320
1553, 2273, 2274, 2322, 2321
1554, 2274, 2275, 2323, 2322
1555, 2275, 2276, 2324, 2323
1556, 2276, 2277, 2325, 2324
1557, 2277, 2278, 2326, 2325
1558, 2278, 2279, 2327, 2326
1559, 2279, 2280, 2328, 2327
1560, 2280, 2281, 2329, 2328
1561, 2281, 2282, 2330, 2329
1562, 2282, 2283, 2331, 2330
1563, 2283, 2284, 2332, 2331
1564, 2284, 2285, 2333, 2332
1565, 2285, 2286, 2334, 2333
1566, 2286, 2287, 2335, 2334
1567, 2287, 2288, 2336, 2335
1568, 2288,  170,  171, 2336
1569,  270, 2289, 2337,  269
1570, 2289, 2290, 2338, 2337
1571, 2290, 2291, 2339, 2338
1572, 2291, 2292, 2340, 2339
1573, 2292, 2293, 2341, 2340
1574, 2293, 2294, 2342, 2341
1575, 2294, 2295, 2343, 2342
1576, 2295, 2296, 2344, 2343
1577, 2296, 2297, 2345, 2344
1578, 2297, 2298, 2346, 2345
1579, 2298, 2299, 2347, 2346
1580, 2299, 2300, 2348, 2347
1581, 2300, 2301, 2349, 2348
1582, 2301, 2302, 2350, 2349
1583, 2302, 2303, 2351, 2350
1584, 2303, 2304, 2352, 2351
1585, 2304, 2305, 2353, 2352
1586, 2305, 2306, 2354, 2353
1587, 2306, 2307, 2355, 2354
1588, 2307, 2308, 2356, 2355
1589, 2308, 2309, 2357, 2356
1590, 2309, 2310, 2358, 2357
1591, 2310, 2311, 2359, 2358
1592, 2311, 2312, 2360, 2359
1593, 2312, 2313, 2361, 2360
1594, 2313, 2314, 2362, 2361
1595, 2314, 2315, 2363, 2362
1596, 2315, 2316, 2364, 2363
1597, 2316, 2317, 2365, 2364
1598, 2317, 2318, 2366, 2365
1599, 2318, 2319, 2367, 2366
1600, 2319, 2320, 2368, 2367
1601, 2320, 2321, 2369, 2368
1602, 2321, 2322, 2370, 2369
1603, 2322, 2323, 2371, 2370
1604, 2323, 2324, 2372, 2371
1605, 2324, 2325, 2373, 2372
1606, 2325, 2326, 2374, 2373
1607, 2326, 2327, 2375, 2374
1608, 2327, 2328, 2376, 2375
1609, 2328, 2329, 2377, 2376
1610, 2329, 2330, 2378, 2377
1611, 2330, 2331, 2379, 2378
1612, 2331, 2332, 2380, 2379
1613, 2332, 2333, 2381, 2380
1614, 2333, 2334, 2382, 2381
1615, 2334, 2335, 2383, 2382
1616, 2335, 2336, 2384, 2383
1617, 2336,  171,  172, 2384
1618,  269, 2337, 2385,  268
1619, 2337, 2338, 2386, 2385
1620, 2338, 2339, 2387, 2386
1621, 2339, 2340, 2388, 2387
1622, 2340, 2341, 2389, 2388
1623, 2341, 2342, 2390, 2389
1624, 2342, 2343, 2391, 2390
1625, 2343, 2344, 2392, 2391
1626, 2344, 2345, 2393, 2392
1627, 2345, 2346, 2394, 2393
1628, 2346, 2347, 2395, 2394
1629, 2347, 2348, 2396, 2395
1630, 2348, 2349, 2397, 2396
1631, 2349, 2350, 2398, 2397
1632, 2350, 2351, 2399, 2398
1633, 2351, 2352, 2400, 2399
1634, 2352, 2353, 2401, 2400
1635, 2353, 2354, 2402, 2401
1636, 2354, 2355, 2403, 2402
1637, 2355, 2356, 2404, 2403
1638, 2356, 2357, 2405, 2404
1639, 2357, 2358, 2406, 2405
1640, 2358, 2359, 2407, 2406
1641, 2359, 2360, 2408, 2407
1642, 2360, 2361, 2409, 2408
1643, 2361, 2362, 2410, 2409
1644, 2362, 2363, 2411, 2410
1645, 2363, 2364, 2412, 2411
1646, 2364, 2365, 2413, 2412
1647, 2365, 2366, 2414, 2413
1648, 2366, 2367, 2415, 2414
1649, 2367, 2368, 2416, 2415
1650, 2368, 2369, 2417, 2416
1651, 2369, 2370, 2418, 2417
1652, 2370, 2371, 2419, 2418
1653, 2371, 2372, 2420, 2419
1654, 2372, 2373, 2421, 2420
1655, 2373, 2374, 2422, 2421
1656, 2374, 2375, 2423, 2422
1657, 2375, 2376, 2424, 2423
1658, 2376, 2377, 2425, 2424
1659, 2377, 2378, 2426, 2425
1660, 2378, 2379, 2427, 2426
1661, 2379, 2380, 2428, 2427
1662, 2380, 2381, 2429, 2428
1663, 2381, 2382, 2430, 2429
1664, 2382, 2383, 2431, 2430
1665, 2383, 2384, 2432, 2431
1666, 2384,  172,  173, 2432
1667,  268, 2385, 2433,  267
1668, 2385, 2386, 2434, 2433
1669, 2386, 2387, 2435, 2434
1670, 2387, 2388, 2436, 2435
1671, 2388, 2389, 2437, 2436
1672, 2389, 2390, 2438, 2437
1673, 2390, 2391, 2439, 2438
1674, 2391, 2392, 2440, 2439
1675, 2392, 2393, 2441, 2440
1676, 2393, 2394, 2442, 2441
1677, 2394, 2395, 2443, 2442
1678, 2395, 2396, 2444, 2443
1679, 2396, 2397, 2445, 2444
1680, 2397, 2398, 2446, 2445
1681, 2398, 2399, 2447, 2446
1682, 2399, 2400, 2448, 2447
1683, 2400, 2401, 2449, 2448
1684, 2401, 2402, 2450, 2449
1685, 2402, 2403, 2451, 2450
1686, 2403, 2404, 2452, 2451
1687, 2404, 2405, 2453, 2452
1688, 2405, 2406, 2454, 2453
1689, 2406, 2407, 2455, 2454
1690, 2407, 2408, 2456, 2455
1691, 2408, 2409, 2457, 2456
1692, 2409, 2410, 2458, 2457
1693, 2410, 2411, 2459, 2458
1694, 2411, 2412, 2460, 2459
1695, 2412, 2413, 2461, 2460
1696, 2413, 2414, 2462, 2461
1697, 2414, 2415, 2463, 2462
1698, 2415, 2416, 2464, 2463
1699, 2416, 2417, 2465, 2464
1700, 2417, 2418, 2466, 2465
1701, 2418, 2419, 2467, 2466
1702, 2419, 2420, 2468, 2467
1703, 2420, 2421, 2469, 2468
1704, 2421, 2422, 2470, 2469
1705, 2422, 2423, 2471, 2470
1706, 2423, 2424, 2472, 2471
1707, 2424, 2425, 2473, 2472
1708, 2425, 2426, 2474, 2473
1709, 2426, 2427, 2475, 2474
1710, 2427, 2428, 2476, 2475
1711, 2428, 2429, 2477, 2476
1712, 2429, 2430, 2478, 2477
1713, 2430, 2431, 2479, 2478
1714, 2431, 2432, 2480, 2479
1715, 2432,  173,  174, 2480
1716,  267, 2433, 2481,  266
1717, 2433, 2434, 2482, 2481
1718, 2434, 2435, 2483, 2482
1719, 2435, 2436, 2484, 2483
1720, 2436, 2437, 2485, 2484
1721, 2437, 2438, 2486, 2485
1722, 2438, 2439, 2487, 2486
1723, 2439, 2440, 2488, 2487
1724, 2440, 2441, 2489, 2488
1725, 2441, 2442, 2490, 2489
1726, 2442, 2443, 2491, 2490
1727, 2443, 2444, 2492, 2491
1728, 2444, 2445, 2493, 2492
1729, 2445, 2446, 2494, 2493
1730, 2446, 2447, 2495, 2494
1731, 2447, 2448, 2496, 2495
1732, 2448, 2449, 2497, 2496
1733, 2449, 2450, 2498, 2497
1734, 2450, 2451, 2499, 2498
1735, 2451, 2452, 2500, 2499
1736, 2452, 2453, 2501, 2500
1737, 2453, 2454, 2502, 2501
1738, 2454, 2455, 2503, 2502
1739, 2455, 2456, 2504, 2503
1740, 2456, 2457, 2505, 2504
1741, 2457, 2458, 2506, 2505
1742, 2458, 2459, 2507, 2506
1743, 2459, 2460, 2508, 2507
1744, 2460, 2461, 2509, 2508
1745, 2461, 2462, 2510, 2509
1746, 2462, 2463, 2511, 2510
1747, 2463, 2464, 2512, 2511
1748, 2464, 2465, 2513, 2512
1749, 2465, 2466, 2514, 2513
1750, 2466, 2467, 2515, 2514
1751, 2467, 2468, 2516, 2515
1752, 2468, 2469, 2517, 2516
1753, 2469, 2470, 2518, 2517
1754, 2470, 2471, 2519, 2518
1755, 2471, 2472, 2520, 2519
1756, 2472, 2473, 2521, 2520
1757, 2473, 2474, 2522, 2521
1758, 2474, 2475, 2523, 2522
1759, 2475, 2476, 2524, 2523
1760, 2476, 2477, 2525, 2524
1761, 2477, 2478, 2526, 2525
1762, 2478, 2479, 2527, 2526
1763, 2479, 2480, 2528, 2527
1764, 2480,  174,  175, 2528
1765,  266, 2481, 2529,  265
1766, 2481, 2482, 2530, 2529
1767, 2482, 2483, 2531, 2530
1768, 2483, 2484, 2532, 2531
1769, 2484, 2485, 2533, 2532
1770, 2485, 2486, 2534, 2533
1771, 2486, 2487, 2535, 2534
1772, 2487, 2488, 2536, 2535
1773, 2488, 2489, 2537, 2536
1774, 2489, 2490, 2538, 2537
1775, 2490, 2491, 2539, 2538
1776, 2491, 2492, 2540, 2539
1777, 2492, 2493, 2541, 2540
1778, 2493, 2494, 2542, 2541
1779, 2494, 2495, 2543, 2542
1780, 2495, 2496, 2544, 2543
1781, 2496, 2497, 2545, 2544
1782, 2497, 2498, 2546, 2545
1783, 2498, 2499, 2547, 2546
1784, 2499, 2500, 2548, 2547
1785, 2500, 2501, 2549, 2548
1786, 2501, 2502, 2550, 2549
1787, 2502, 2503, 2551, 2550
1788, 2503, 2504, 2552, 2551
1789, 2504, 2505, 2553, 2552
1790, 2505, 2506, 2554, 2553
1791, 2506, 2507, 2555, 2554
1792, 2507, 2508, 2556, 2555
1793, 2508, 2509, 2557, 2556
1794, 2509, 2510, 2558, 2557
1795, 2510, 2511, 2559, 2558
1796, 2511, 2512, 2560, 2559
1797, 2512, 2513, 2561, 2560
1798, 2513, 2514, 2562, 2561
1799, 2514, 2515, 2563, 2562
1800, 2515, 2516, 2564, 2563
1801, 2516, 2517, 2565, 2564
1802, 2517, 2518, 2566, 2565
1803, 2518, 2519, 2567, 2566
1804, 2519, 2520, 2568, 2567
1805, 2520, 2521, 2569, 2568
1806, 2521, 2522, 2570, 2569
1807, 2522, 2523, 2571, 2570
1808, 2523, 2524, 2572, 2571
1809, 2524, 2525, 2573, 2572
1810, 2525, 2526, 2574, 2573
1811, 2526, 2527, 2575, 2574
1812, 2527, 2528, 2576, 2575
1813, 2528,  175,  176, 2576
1814,  265, 2529, 2577,  264
1815, 2529, 2530, 2578, 2577
1816, 2530, 2531, 2579, 2578
1817, 2531, 2532, 2580, 2579
1818, 2532, 2533, 2581, 2580
1819, 2533, 2534, 2582, 2581
1820, 2534, 2535, 2583, 2582
1821, 2535, 2536, 2584, 2583
1822, 2536, 2537, 2585, 2584
1823, 2537, 2538, 2586, 2585
1824, 2538, 2539, 2587, 2586
1825, 2539, 2540, 2588, 2587
1826, 2540, 2541, 2589, 2588
1827, 2541, 2542, 2590, 2589
1828, 2542, 2543, 2591, 2590
1829, 2543, 2544, 2592, 2591
1830, 2544, 2545, 2593, 2592
1831, 2545, 2546, 2594, 2593
1832, 2546, 2547, 2595, 2594
1833, 2547, 2548, 2596, 2595
1834, 2548, 2549, 2597, 2596
1835, 2549, 2550, 2598, 2597
1836, 2550, 2551, 2599, 2598
1837, 2551, 2552, 2600, 2599
1838, 2552, 2553, 2601, 2600
1839, 2553, 2554, 2602, 2601
1840, 2554, 2555, 2603, 2602
1841, 2555, 2556, 2604, 2603
1842, 2556, 2557, 2605, 2604
1843, 2557, 2558, 2606, 2605
1844, 2558, 2559, 2607, 2606
1845, 2559, 2560, 2608, 2607
1846, 2560, 2561, 2609, 2608
1847, 2561, 2562, 2610, 2609
1848, 2562, 2563, 2611, 2610
1849, 2563, 2564, 2612, 2611
1850, 2564, 2565, 2613, 2612
1851, 2565, 2566, 2614, 2613
1852, 2566, 2567, 2615, 2614
1853, 2567, 2568, 2616, 2615
1854, 2568, 2569, 2617, 2616
1855, 2569, 2570, 2618, 2617
1856, 2570, 2571, 2619, 2618
1857, 2571, 2572, 2620, 2619
1858, 2572, 2573, 2621, 2620
1859, 2573, 2574, 2622, 2621
1860, 2574, 2575, 2623, 2622
1861, 2575, 2576, 2624, 2623
1862, 2576,  176,  177, 2624
1863,  264, 2577, 2625,  263
1864, 2577, 2578, 2626, 2625
1865, 2578, 2579, 2627, 2626
1866, 2579, 2580, 2628, 2627
1867, 2580, 2581, 2629, 2628
1868, 2581, 2582, 2630, 2629
1869, 2582, 2583, 2631, 2630
1870, 2583, 2584, 2632, 2631
1871, 2584, 2585, 2633, 2632
1872, 2585, 2586, 2634, 2633
1873, 2586, 2587, 2635, 2634
1874, 2587, 2588, 2636, 2635
1875, 2588, 2589, 2637, 2636
1876, 2589, 2590, 2638, 2637
1877, 2590, 2591, 2639, 2638
1878, 2591, 2592, 2640, 2639
1879, 2592, 2593, 2641, 2640
1880, 2593, 2594, 2642, 2641
1881, 2594, 2595, 2643, 2642
1882, 2595, 2596, 2644, 2643
1883, 2596, 2597, 2645, 2644
1884, 2597, 2598, 2646, 2645
1885, 2598, 2599, 2647, 2646
1886, 2599, 2600, 2648, 2647
1887, 2600, 2601, 2649, 2648
1888, 2601, 2602, 2650, 2649
1889, 2602, 2603, 2651, 2650
1890, 2603, 2604, 2652, 2651
1891, 2604, 2605, 2653, 2652
1892, 2605, 2606, 2654, 2653
1893, 2606, 2607, 2655, 2654
1894, 2607, 2608, 2656, 2655
1895, 2608, 2609, 2657, 2656
1896, 2609, 2610, 2658, 2657
1897, 2610, 2611, 2659, 2658
1898, 2611, 2612, 2660, 2659
1899, 2612, 2613, 2661, 2660
1900, 2613, 2614, 2662, 2661
1901, 2614, 2615, 2663, 2662
1902, 2615, 2616, 2664, 2663
1903, 2616, 2617, 2665, 2664
1904, 2617, 2618, 2666, 2665
1905, 2618, 2619, 2667, 2666
1906, 2619, 2620, 2668, 2667
1907, 2620, 2621, 2669, 2668
1908, 2621, 2622, 2670, 2669
1909, 2622, 2623, 2671, 2670
1910, 2623, 2624, 2672, 2671
1911, 2624,  177,  178, 2672
1912,  263, 2625, 2673,  262
1913, 2625, 2626, 2674, 2673
1914, 2626, 2627, 2675, 2674
1915, 2627, 2628, 2676, 2675
1916, 2628, 2629, 2677, 2676
1917, 2629, 2630, 2678, 2677
1918, 2630, 2631, 2679, 2678
1919, 2631, 2632, 2680, 2679
1920, 2632, 2633, 2681, 2680
1921, 2633, 2634, 2682, 2681
1922, 2634, 2635, 2683, 2682
1923, 2635, 2636, 2684, 2683
1924, 2636, 2637, 2685, 2684
1925, 2637, 2638, 2686, 2685
1926, 2638, 2639, 2687, 2686
1927, 2639, 2640, 2688, 2687
1928, 2640, 2641, 2689, 2688
1929, 2641, 2642, 2690, 2689
1930, 2642, 2643, 2691, 2690
1931, 2643, 2644, 2692, 2691
1932, 2644, 2645, 2693, 2692
1933, 2645, 2646, 2694, 2693
1934, 2646, 2647, 2695, 2694
1935, 2647, 2648, 2696, 2695
1936, 2648, 2649, 2697, 2696
1937, 2649, 2650, 2698, 2697
1938, 2650, 2651, 2699, 2698
1939, 2651, 2652, 2700, 2699
1940, 2652, 2653, 2701, 2700
1941, 2653, 2654, 2702, 2701
1942, 2654, 2655, 2703, 2702
1943, 2655, 2656, 2704, 2703
1944, 2656, 2657, 2705, 2704
1945, 2657, 2658, 2706, 2705
1946, 2658, 2659, 2707, 2706
1947, 2659, 2660, 2708, 2707
1948, 2660, 2661, 2709, 2708
1949, 2661, 2662, 2710, 2709
1950, 2662, 2663, 2711, 2710
1951, 2663, 2664, 2712, 2711
1952, 2664, 2665, 2713, 2712
1953, 2665, 2666, 2714, 2713
1954, 2666, 2667, 2715, 2714
1955, 2667, 2668, 2716, 2715
1956, 2668, 2669, 2717, 2716
1957, 2669, 2670, 2718, 2717
1958, 2670, 2671, 2719, 2718
1959, 2671, 2672, 2720, 2719
1960, 2672,  178,  179, 2720
1961,  262, 2673, 2721,  261
1962, 2673, 2674, 2722, 2721
1963, 2674, 2675, 2723, 2722
1964, 2675, 2676, 2724, 2723
1965, 2676, 2677, 2725, 2724
1966, 2677, 2678, 2726, 2725
1967, 2678, 2679, 2727, 2726
1968, 2679, 2680, 2728, 2727
1969, 2680, 2681, 2729, 2728
1970, 2681, 2682, 2730, 2729
1971, 2682, 2683, 2731, 2730
1972, 2683, 2684, 2732, 2731
1973, 2684, 2685, 2733, 2732
1974, 2685, 2686, 2734, 2733
1975, 2686, 2687, 2735, 2734
1976, 2687, 2688, 2736, 2735
1977, 2688, 2689, 2737, 2736
1978, 2689, 2690, 2738, 2737
1979, 2690, 2691, 2739, 2738
1980, 2691, 2692, 2740, 2739
1981, 2692, 2693, 2741, 2740
1982, 2693, 2694, 2742, 2741
1983, 2694, 2695, 2743, 2742
1984, 2695, 2696, 2744, 2743
1985, 2696, 2697, 2745, 2744
1986, 2697, 2698, 2746, 2745
1987, 2698, 2699, 2747, 2746
1988, 2699, 2700, 2748, 2747
1989, 2700, 2701, 2749, 2748
1990, 2701, 2702, 2750, 2749
1991, 2702, 2703, 2751, 2750
1992, 2703, 2704, 2752, 2751
1993, 2704, 2705, 2753, 2752
1994, 2705, 2706, 2754, 2753
1995, 2706, 2707, 2755, 2754
1996, 2707, 2708, 2756, 2755
1997, 2708, 2709, 2757, 2756
1998, 2709, 2710, 2758, 2757
1999, 2710, 2711, 2759, 2758
2000, 2711, 2712, 2760, 2759
2001, 2712, 2713, 2761, 2760
2002, 2713, 2714, 2762, 2761
2003, 2714, 2715, 2763, 2762
2004, 2715, 2716, 2764, 2763
2005, 2716, 2717, 2765, 2764
2006, 2717, 2718, 2766, 2765
2007, 2718, 2719, 2767, 2766
2008, 2719, 2720, 2768, 2767
2009, 2720,  179,  180, 2768
2010,  261, 2721, 2769,  260
2011, 2721, 2722, 2770, 2769
2012, 2722, 2723, 2771, 2770
2013, 2723, 2724, 2772, 2771
2014, 2724, 2725, 2773, 2772
2015, 2725, 2726, 2774, 2773
2016, 2726, 2727, 2775, 2774
2017, 2727, 2728, 2776, 2775
2018, 2728, 2729, 2777, 2776
2019, 2729, 2730, 2778, 2777
2020, 2730, 2731, 2779, 2778
2021, 2731, 2732, 2780, 2779
2022, 2732, 2733, 2781, 2780
2023, 2733, 2734, 2782, 2781
2024, 2734, 2735, 2783, 2782
2025, 2735, 2736, 2784, 2783
2026, 2736, 2737, 2785, 2784
2027, 2737, 2738, 2786, 2785
2028, 2738, 2739, 2787, 2786
2029, 2739, 2740, 2788, 2787
2030, 2740, 2741, 2789, 2788
2031, 2741, 2742, 2790, 2789
2032, 2742, 2743, 2791, 2790
2033, 2743, 2744, 2792, 2791
2034, 2744, 2745, 2793, 2792
2035, 2745, 2746, 2794, 2793
2036, 2746, 2747, 2795, 2794
2037, 2747, 2748, 2796, 2795
2038, 2748, 2749, 2797, 2796
2039, 2749, 2750, 2798, 2797
2040, 2750, 2751, 2799, 2798
2041, 2751, 2752, 2800, 2799
2042, 2752, 2753, 2801, 2800
2043, 2753, 2754, 2802, 2801
2044, 2754, 2755, 2803, 2802
2045, 2755, 2756, 2804, 2803
2046, 2756, 2757, 2805, 2804
2047, 2757, 2758, 2806, 2805
2048, 2758, 2759, 2807, 2806
2049, 2759, 2760, 2808, 2807
2050, 2760, 2761, 2809, 2808
2051, 2761, 2762, 2810, 2809
2052, 2762, 2763, 2811, 2810
2053, 2763, 2764, 2812, 2811
2054, 2764, 2765, 2813, 2812
2055, 2765, 2766, 2814, 2813
2056, 2766, 2767, 2815, 2814
2057, 2767, 2768, 2816, 2815
2058, 2768,  180,  181, 2816
2059,  260, 2769, 2817,  259
2060, 2769, 2770, 2818, 2817
2061, 2770, 2771, 2819, 2818
2062, 2771, 2772, 2820, 2819
2063, 2772, 2773, 2821, 2820
2064, 2773, 2774, 2822, 2821
2065, 2774, 2775, 2823, 2822
2066, 2775, 2776, 2824, 2823
2067, 2776, 2777, 2825, 2824
2068, 2777, 2778, 2826, 2825
2069, 2778, 2779, 2827, 2826
2070, 2779, 2780, 2828, 2827
2071, 2780, 2781, 2829, 2828
2072, 2781, 2782, 2830, 2829
2073, 2782, 2783, 2831, 2830
2074, 2783, 2784, 2832, 2831
2075, 2784, 2785, 2833, 2832
2076, 2785, 2786, 2834, 2833
2077, 2786, 2787, 2835, 2834
2078, 2787, 2788, 2836, 2835
2079, 2788, 2789, 2837, 2836
2080, 2789, 2790, 2838, 2837
2081, 2790, 2791, 2839, 2838
2082, 2791, 2792, 2840, 2839
2083, 2792, 2793, 2841, 2840
2084, 2793, 2794, 2842, 2841
2085, 2794, 2795, 2843, 2842
2086, 2795, 2796, 2844, 2843
2087, 2796, 2797, 2845, 2844
2088, 2797, 2798, 2846, 2845
2089, 2798, 2799, 2847, 2846
2090, 2799, 2800, 2848, 2847
2091, 2800, 2801, 2849, 2848
2092, 2801, 2802, 2850, 2849
2093, 2802, 2803, 2851, 2850
2094, 2803, 2804, 2852, 2851
2095, 2804, 2805, 2853, 2852
2096, 2805, 2806, 2854, 2853
2097, 2806, 2807, 2855, 2854
2098, 2807, 2808, 2856, 2855
2099, 2808, 2809, 2857, 2856
2100, 2809, 2810, 2858, 2857
2101, 2810, 2811, 2859, 2858
2102, 2811, 2812, 2860, 2859
2103, 2812, 2813, 2861, 2860
2104, 2813, 2814, 2862, 2861
2105, 2814, 2815, 2863, 2862
2106, 2815, 2816, 2864, 2863
2107, 2816,  181,  182, 2864
2108,  259, 2817, 2865,  258
2109, 2817, 2818, 2866, 2865
2110, 2818, 2819, 2867, 2866
2111, 2819, 2820, 2868, 2867
2112, 2820, 2821, 2869, 2868
2113, 2821, 2822, 2870, 2869
2114, 2822, 2823, 2871, 2870
2115, 2823, 2824, 2872, 2871
2116, 2824, 2825, 2873, 2872
2117, 2825, 2826, 2874, 2873
2118, 2826, 2827, 2875, 2874
2119, 2827, 2828, 2876, 2875
2120, 2828, 2829, 2877, 2876
2121, 2829, 2830, 2878, 2877
2122, 2830, 2831, 2879, 2878
2123, 2831, 2832, 2880, 2879
2124, 2832, 2833, 2881, 2880
2125, 2833, 2834, 2882, 2881
2126, 2834, 2835, 2883, 2882
2127, 2835, 2836, 2884, 2883
2128, 2836, 2837, 2885, 2884
2129, 2837, 2838, 2886, 2885
2130, 2838, 2839, 2887, 2886
2131, 2839, 2840, 2888, 2887
2132, 2840, 2841, 2889, 2888
2133, 2841, 2842, 2890, 2889
2134, 2842, 2843, 2891, 2890
2135, 2843, 2844, 2892, 2891
2136, 2844, 2845, 2893, 2892
2137, 2845, 2846, 2894, 2893
2138, 2846, 2847, 2895, 2894
2139, 2847, 2848, 2896, 2895
2140, 2848, 2849, 2897, 2896
2141, 2849, 2850, 2898, 2897
2142, 2850, 2851, 2899, 2898
2143, 2851, 2852, 2900, 2899
2144, 2852, 2853, 2901, 2900
2145, 2853, 2854, 2902, 2901
2146, 2854, 2855, 2903, 2902
2147, 2855, 2856, 2904, 2903
2148, 2856, 2857, 2905, 2904
2149, 2857, 2858, 2906, 2905
2150, 2858, 2859, 2907, 2906
2151, 2859, 2860, 2908, 2907
2152, 2860, 2861, 2909, 2908
2153, 2861, 2862, 2910, 2909
2154, 2862, 2863, 2911, 2910
2155, 2863, 2864, 2912, 2911
2156, 2864,  182,  183, 2912
2157,  258, 2865, 2913,  257
2158, 2865, 2866, 2914, 2913
2159, 2866, 2867, 2915, 2914
2160, 2867, 2868, 2916, 2915
2161, 2868, 2869, 2917, 2916
2162, 2869, 2870, 2918, 2917
2163, 2870, 2871, 2919, 2918
2164, 2871, 2872, 2920, 2919
2165, 2872, 2873, 2921, 2920
2166, 2873, 2874, 2922, 2921
2167, 2874, 2875, 2923, 2922
2168, 2875, 2876, 2924, 2923
2169, 2876, 2877, 2925, 2924
2170, 2877, 2878, 2926, 2925
2171, 2878, 2879, 2927, 2926
2172, 2879, 2880, 2928, 2927
2173, 2880, 2881, 2929, 2928
2174, 2881, 2882, 2930, 2929
2175, 2882, 2883, 2931, 2930
2176, 2883, 2884, 2932, 2931
2177, 2884, 2885, 2933, 2932
2178, 2885, 2886, 2934, 2933
2179, 2886, 2887, 2935, 2934
2180, 2887, 2888, 2936, 2935
2181, 2888, 2889, 2937, 2936
2182, 2889, 2890, 2938, 2937
2183, 2890, 2891, 2939, 2938
2184, 2891, 2892, 2940, 2939
2185, 2892, 2893, 2941, 2940
2186, 2893, 2894, 2942, 2941
2187, 2894, 2895, 2943, 2942
2188, 2895, 2896, 2944, 2943
2189, 2896, 2897, 2945, 2944
2190, 2897, 2898, 2946, 2945
2191, 2898, 2899, 2947, 2946
2192, 2899, 2900, 2948, 2947
2193, 2900, 2901, 2949, 2948
2194, 2901, 2902, 2950, 2949
2195, 2902, 2903, 2951, 2950
2196, 2903, 2904, 2952, 2951
2197, 2904, 2905, 2953, 2952
2198, 2905, 2906, 2954, 2953
2199, 2906, 2907, 2955, 2954
2200, 2907, 2908, 2956, 2955
2201, 2908, 2909, 2957, 2956
2202, 2909, 2910, 2958, 2957
2203, 2910, 2911, 2959, 2958
2204, 2911, 2912, 2960, 2959
2205, 2912,  183,  184, 2960
2206,  257, 2913, 2961,  256
2207, 2913, 2914, 2962, 2961
2208, 2914, 2915, 2963, 2962
2209, 2915, 2916, 2964, 2963
2210, 2916, 2917, 2965, 2964
2211, 2917, 2918, 2966, 2965
2212, 2918, 2919, 2967, 2966
2213, 2919, 2920, 2968, 2967
2214, 2920, 2921, 2969, 2968
2215, 2921, 2922, 2970, 2969
2216, 2922, 2923, 2971, 2970
2217, 2923, 2924, 2972, 2971
2218, 2924, 2925, 2973, 2972
2219, 2925, 2926, 2974, 2973
2220, 2926, 2927, 2975, 2974
2221, 2927, 2928, 2976, 2975
2222, 2928, 2929, 2977, 2976
2223, 2929, 2930, 2978, 2977
2224, 2930, 2931, 2979, 2978
2225, 2931, 2932, 2980, 2979
2226, 2932, 2933, 2981, 2980
2227, 2933, 2934, 2982, 2981
2228, 2934, 2935, 2983, 2982
2229, 2935, 2936, 2984, 2983
2230, 2936, 2937, 2985, 2984
2231, 2937, 2938, 2986, 2985
2232, 2938, 2939, 2987, 2986
2233, 2939, 2940, 2988, 2987
2234, 2940, 2941, 2989, 2988
2235, 2941, 2942, 2990, 2989
2236, 2942, 2943, 2991, 2990
2237, 2943, 2944, 2992, 2991
2238, 2944, 2945, 2993, 2992
2239, 2945, 2946, 2994, 2993
2240, 2946, 2947, 2995, 2994
2241, 2947, 2948, 2996, 2995
2242, 2948, 2949, 2997, 2996
2243, 2949, 2950, 2998, 2997
2244, 2950, 2951, 2999, 2998
2245, 2951, 2952, 3000, 2999
2246, 2952, 2953, 3001, 3000
2247, 2953, 2954, 3002, 3001
2248, 2954, 2955, 3003, 3002
2249, 2955, 2956, 3004, 3003
2250, 2956, 2957, 3005, 3004
2251, 2957, 2958, 3006, 3005
2252, 2958, 2959, 3007, 3006
2253, 2959, 2960, 3008, 3007
2254, 2960,  184,  185, 3008
2255,  256, 2961, 3009,  255
2256, 2961, 2962, 3010, 3009
2257, 2962, 2963, 3011, 3010
2258, 2963, 2964, 3012, 3011
2259, 2964, 2965, 3013, 3012
2260, 2965, 2966, 3014, 3013
2261, 2966, 2967, 3015, 3014
2262, 2967, 2968, 3016, 3015
2263, 2968, 2969, 3017, 3016
2264, 2969, 2970, 3018, 3017
2265, 2970, 2971, 3019, 3018
2266, 2971, 2972, 3020, 3019
2267, 2972, 2973, 3021, 3020
2268, 2973, 2974, 3022, 3021
2269, 2974, 2975, 3023, 3022
2270, 2975, 2976, 3024, 3023
2271, 2976, 2977, 3025, 3024
2272, 2977, 2978, 3026, 3025
2273, 2978, 2979, 3027, 3026
2274, 2979, 2980, 3028, 3027
2275, 2980, 2981, 3029, 3028
2276, 2981, 2982, 3030, 3029
2277, 2982, 2983, 3031, 3030
2278, 2983, 2984, 3032, 3031
2279, 2984, 2985, 3033, 3032
2280, 2985, 2986, 3034, 3033
2281, 2986, 2987, 3035, 3034
2282, 2987, 2988, 3036, 3035
2283, 2988, 2989, 3037, 3036
2284, 2989, 2990, 3038, 3037
2285, 2990, 2991, 3039, 3038
2286, 2991, 2992, 3040, 3039
2287, 2992, 2993, 3041, 3040
2288, 2993, 2994, 3042, 3041
2289, 2994, 2995, 3043, 3042
2290, 2995, 2996, 3044, 3043
2291, 2996, 2997, 3045, 3044
2292, 2997, 2998, 3046, 3045
2293, 2998, 2999, 3047, 3046
2294, 2999, 3000, 3048, 3047
2295, 3000, 3001, 3049, 3048
2296, 3001, 3002, 3050, 3049
2297, 3002, 3003, 3051, 3050
2298, 3003, 3004, 3052, 3051
2299, 3004, 3005, 3053, 3052
2300, 3005, 3006, 3054, 3053
2301, 3006, 3007, 3055, 3054
2302, 3007, 3008, 3056, 3055
2303, 3008,  185,  186, 3056
2304,  255, 3009, 3057,  254
2305, 3009, 3010, 3058, 3057
2306, 3010, 3011, 3059, 3058
2307, 3011, 3012, 3060, 3059
2308, 3012, 3013, 3061, 3060
2309, 3013, 3014, 3062, 3061
2310, 3014, 3015, 3063, 3062
2311, 3015, 3016, 3064, 3063
2312, 3016, 3017, 3065, 3064
2313, 3017, 3018, 3066, 3065
2314, 3018, 3019, 3067, 3066
2315, 3019, 3020, 3068, 3067
2316, 3020, 3021, 3069, 3068
2317, 3021, 3022, 3070, 3069
2318, 3022, 3023, 3071, 3070
2319, 3023, 3024, 3072, 3071
2320, 3024, 3025, 3073, 3072
2321, 3025, 3026, 3074, 3073
2322, 3026, 3027, 3075, 3074
2323, 3027, 3028, 3076, 3075
2324, 3028, 3029, 3077, 3076
2325, 3029, 3030, 3078, 3077
2326, 3030, 3031, 3079, 3078
2327, 3031, 3032, 3080, 3079
2328, 3032, 3033, 3081, 3080
2329, 3033, 3034, 3082, 3081
2330, 3034, 3035, 3083, 3082
2331, 3035, 3036, 3084, 3083
2332, 3036, 3037, 3085, 3084
2333, 3037, 3038, 3086, 3085
2334, 3038, 3039, 3087, 3086
2335, 3039, 3040, 3088, 3087
2336, 3040, 3041, 3089, 3088
2337, 3041, 3042, 3090, 3089
2338, 3042, 3043, 3091, 3090
2339, 3043, 3044, 3092, 3091
2340, 3044, 3045, 3093, 3092
2341, 3045, 3046, 3094, 3093
2342, 3046, 3047, 3095, 3094
2343, 3047, 3048, 3096, 3095
2344, 3048, 3049, 3097, 3096
2345, 3049, 3050, 3098, 3097
2346, 3050, 3051, 3099, 3098
2347, 3051, 3052, 3100, 3099
2348, 3052, 3053, 3101, 3100
2349, 3053, 3054, 3102, 3101
2350, 3054, 3055, 3103, 3102
2351, 3055, 3056, 3104, 3103
2352, 3056,  186,  187, 3104
2353,  254, 3057, 3105,  253
2354, 3057, 3058, 3106, 3105
2355, 3058, 3059, 3107, 3106
2356, 3059, 3060, 3108, 3107
2357, 3060, 3061, 3109, 3108
2358, 3061, 3062, 3110, 3109
2359, 3062, 3063, 3111, 3110
2360, 3063, 3064, 3112, 3111
2361, 3064, 3065, 3113, 3112
2362, 3065, 3066, 3114, 3113
2363, 3066, 3067, 3115, 3114
2364, 3067, 3068, 3116, 3115
2365, 3068, 3069, 3117, 3116
2366, 3069, 3070, 3118, 3117
2367, 3070, 3071, 3119, 3118
2368, 3071, 3072, 3120, 3119
2369, 3072, 3073, 3121, 3120
2370, 3073, 3074, 3122, 3121
2371, 3074, 3075, 3123, 3122
2372, 3075, 3076, 3124, 3123
2373, 3076, 3077, 3125, 3124
2374, 3077, 3078, 3126, 3125
2375, 3078, 3079, 3127, 3126
2376, 3079, 3080, 3128, 3127
2377, 3080, 3081, 3129, 3128
2378, 3081, 3082, 3130, 3129
2379, 3082, 3083, 3131, 3130
2380, 3083, 3084, 3132, 3131
2381, 3084, 3085, 3133, 3132
2382, 3085, 3086, 3134, 3133
2383, 3086, 3087, 3135, 3134
2384, 3087, 3088, 3136, 3135
2385, 3088, 3089, 3137, 3136
2386, 3089, 3090, 3138, 3137
2387, 3090, 3091, 3139, 3138
2388, 3091, 3092, 3140, 3139
2389, 3092, 3093, 3141, 3140
2390, 3093, 3094, 3142, 3141
2391, 3094, 3095, 3143, 3142
2392, 3095, 3096, 3144, 3143
2393, 3096, 3097, 3145, 3144
2394, 3097, 3098, 3146, 3145
2395, 3098, 3099, 3147, 3146
2396, 3099, 3100, 3148, 3147
2397, 3100, 3101, 3149, 3148
2398, 3101, 3102, 3150, 3149
2399, 3102, 3103, 3151, 3150
2400, 3103, 3104, 3152, 3151
2401, 3104,  187,  188, 3152
2402,  253, 3105, 3153,  252
2403, 3105, 3106, 3154, 3153
2404, 3106, 3107, 3155, 3154
2405, 3107, 3108, 3156, 3155
2406, 3108, 3109, 3157, 3156
2407, 3109, 3110, 3158, 3157
2408, 3110, 3111, 3159, 3158
2409, 3111, 3112, 3160, 3159
2410, 3112, 3113, 3161, 3160
2411, 3113, 3114, 3162, 3161
2412, 3114, 3115, 3163, 3162
2413, 3115, 3116, 3164, 3163
2414, 3116, 3117, 3165, 3164
2415, 3117, 3118, 3166, 3165
2416, 3118, 3119, 3167, 3166
2417, 3119, 3120, 3168, 3167
2418, 3120, 3121, 3169, 3168
2419, 3121, 3122, 3170, 3169
2420, 3122, 3123, 3171, 3170
2421, 3123, 3124, 3172, 3171
2422, 3124, 3125, 3173, 3172
2423, 3125, 3126, 3174, 3173
2424, 3126, 3127, 3175, 3174
2425, 3127, 3128, 3176, 3175
2426, 3128, 3129, 3177, 3176
2427, 3129, 3130, 3178, 3177
2428, 3130, 3131, 3179, 3178
2429, 3131, 3132, 3180, 3179
2430, 3132, 3133, 3181, 3180
2431, 3133, 3134, 3182, 3181
2432, 3134, 3135, 3183, 3182
2433, 3135, 3136, 3184, 3183
2434, 3136, 3137, 3185, 3184
2435, 3137, 3138, 3186, 3185
2436, 3138, 3139, 3187, 3186
2437, 3139, 3140, 3188, 3187
2438, 3140, 3141, 3189, 3188
2439, 3141, 3142, 3190, 3189
2440, 3142, 3143, 3191, 3190
2441, 3143, 3144, 3192, 3191
2442, 3144, 3145, 3193, 3192
2443, 3145, 3146, 3194, 3193
2444, 3146, 3147, 3195, 3194
2445, 3147, 3148, 3196, 3195
2446, 3148, 3149, 3197, 3196
2447, 3149, 3150, 3198, 3197
2448, 3150, 3151, 3199, 3198
2449, 3151, 3152, 3200, 3199
2450, 3152,  188,  189, 3200
2451,  252, 3153, 3201,  251
2452, 3153, 3154, 3202, 3201
2453, 3154, 3155, 3203, 3202
2454, 3155, 3156, 3204, 3203
2455, 3156, 3157, 3205, 3204
2456, 3157, 3158, 3206, 3205
2457, 3158, 3159, 3207, 3206
2458, 3159, 3160, 3208, 3207
2459, 3160, 3161, 3209, 3208
2460, 3161, 3162, 3210, 3209
2461, 3162, 3163, 3211, 3210
2462, 3163, 3164, 3212, 3211
2463, 3164, 3165, 3213, 3212
2464, 3165, 3166, 3214, 3213
2465, 3166, 3167, 3215, 3214
2466, 3167, 3168, 3216, 3215
2467, 3168, 3169, 3217, 3216
2468, 3169, 3170, 3218, 3217
2469, 3170, 3171, 3219, 3218
2470, 3171, 3172, 3220, 3219
2471, 3172, 3173, 3221, 3220
2472, 3173, 3174, 3222, 3221
2473, 3174, 3175, 3223, 3222
2474, 3175, 3176, 3224, 3223
2475, 3176, 3177, 3225, 3224
2476, 3177, 3178, 3226, 3225
2477, 3178, 3179, 3227, 3226
2478, 3179, 3180, 3228, 3227
2479, 3180, 3181, 3229, 3228
2480, 3181, 3182, 3230, 3229
2481, 3182, 3183, 3231, 3230
2482, 3183, 3184, 3232, 3231
2483, 3184, 3185, 3233, 3232
2484, 3185, 3186, 3234, 3233
2485, 3186, 3187, 3235, 3234
2486, 3187, 3188, 3236, 3235
2487, 3188, 3189, 3237, 3236
2488, 3189, 3190, 3238, 3237
2489, 3190, 3191, 3239, 3238
2490, 3191, 3192, 3240, 3239
2491, 3192, 3193, 3241, 3240
2492, 3193, 3194, 3242, 3241
2493, 3194, 3195, 3243, 3242
2494, 3195, 3196, 3244, 3243
2495, 3196, 3197, 3245, 3244
2496, 3197, 3198, 3246, 3245
2497, 3198, 3199, 3247, 3246
2498, 3199, 3200, 3248, 3247
2499, 3200,  189,  190, 3248
2500,  251, 3201, 3249,  250
2501, 3201, 3202, 3250, 3249
2502, 3202, 3203, 3251, 3250
2503, 3203, 3204, 3252, 3251
2504, 3204, 3205, 3253, 3252
2505, 3205, 3206, 3254, 3253
2506, 3206, 3207, 3255, 3254
2507, 3207, 3208, 3256, 3255
2508, 3208, 3209, 3257, 3256
2509, 3209, 3210, 3258, 3257
2510, 3210, 3211, 3259, 3258
2511, 3211, 3212, 3260, 3259
2512, 3212, 3213, 3261, 3260
2513, 3213, 3214, 3262, 3261
2514, 3214, 3215, 3263, 3262
2515, 3215, 3216, 3264, 3263
2516, 3216, 3217, 3265, 3264
2517, 3217, 3218, 3266, 3265
2518, 3218, 3219, 3267, 3266
2519, 3219, 3220, 3268, 3267
2520, 3220, 3221, 3269, 3268
2521, 3221, 3222, 3270, 3269
2522, 3222, 3223, 3271, 3270
2523, 3223, 3224, 3272, 3271
2524, 3224, 3225, 3273, 3272
2525, 3225, 3226, 3274, 3273
2526, 3226, 3227, 3275, 3274
2527, 3227, 3228, 3276, 3275
2528, 3228, 3229, 3277, 3276
2529, 3229, 3230, 3278, 3277
2530, 3230, 3231, 3279, 3278
2531, 3231, 3232, 3280, 3279
2532, 3232, 3233, 3281, 3280
2533, 3233, 3234, 3282, 3281
2534, 3234, 3235, 3283, 3282
2535, 3235, 3236, 3284, 3283
2536, 3236, 3237, 3285, 3284
2537, 3237, 3238, 3286, 3285
2538, 3238, 3239, 3287, 3286
2539, 3239, 3240, 3288, 3287
2540, 3240, 3241, 3289, 3288
2541, 3241, 3242, 3290, 3289
2542, 3242, 3243, 3291, 3290
2543, 3243, 3244, 3292, 3291
2544, 3244, 3245, 3293, 3292
2545, 3245, 3246, 3294, 3293
2546, 3246, 3247, 3295, 3294
2547, 3247, 3248, 3296, 3295
2548, 3248,  190,  191, 3296
2549,  250, 3249, 3297,  249
2550, 3249, 3250, 3298, 3297
2551, 3250, 3251, 3299, 3298
2552, 3251, 3252, 3300, 3299
2553, 3252, 3253, 3301, 3300
2554, 3253, 3254, 3302, 3301
2555, 3254, 3255, 3303, 3302
2556, 3255, 3256, 3304, 3303
2557, 3256, 3257, 3305, 3304
2558, 3257, 3258, 3306, 3305
2559, 3258, 3259, 3307, 3306
2560, 3259, 3260, 3308, 3307
2561, 3260, 3261, 3309, 3308
2562, 3261, 3262, 3310, 3309
2563, 3262, 3263, 3311, 3310
2564, 3263, 3264, 3312, 3311
2565, 3264, 3265, 3313, 3312
2566, 3265, 3266, 3314, 3313
2567, 3266, 3267, 3315, 3314
2568, 3267, 3268, 3316, 3315
2569, 3268, 3269, 3317, 3316
2570, 3269, 3270, 3318, 3317
2571, 3270, 3271, 3319, 3318
2572, 3271, 3272, 3320, 3319
2573, 3272, 3273, 3321, 3320
2574, 3273, 3274, 3322, 3321
2575, 3274, 3275, 3323, 3322
2576, 3275, 3276, 3324, 3323
2577, 3276, 3277, 3325, 3324
2578, 3277, 3278, 3326, 3325
2579, 3278, 3279, 3327, 3326
2580, 3279, 3280, 3328, 3327
2581, 3280, 3281, 3329, 3328
2582, 3281, 3282, 3330, 3329
2583, 3282, 3283, 3331, 3330
2584, 3283, 3284, 3332, 3331
2585, 3284, 3285, 3333, 3332
2586, 3285, 3286, 3334, 3333
2587, 3286, 3287, 3335, 3334
2588, 3287, 3288, 3336, 3335
2589, 3288, 3289, 3337, 3336
2590, 3289, 3290, 3338, 3337
2591, 3290, 3291, 3339, 3338
2592, 3291, 3292, 3340, 3339
2593, 3292, 3293, 3341, 3340
2594, 3293, 3294, 3342, 3341
2595, 3294, 3295, 3343, 3342
2596, 3295, 3296, 3344, 3343
2597, 3296,  191,  192, 3344
2598,  249, 3297, 3345,  248
2599, 3297, 3298, 3346, 3345
2600, 3298, 3299, 3347, 3346
2601, 3299, 3300, 3348, 3347
2602, 3300, 3301, 3349, 3348
2603, 3301, 3302, 3350, 3349
2604, 3302, 3303, 3351, 3350
2605, 3303, 3304, 3352, 3351
2606, 3304, 3305, 3353, 3352
2607, 3305, 3306, 3354, 3353
2608, 3306, 3307, 3355, 3354
2609, 3307, 3308, 3356, 3355
2610, 3308, 3309, 3357, 3356
2611, 3309, 3310, 3358, 3357
2612, 3310, 3311, 3359, 3358
2613, 3311, 3312, 3360, 3359
2614, 3312, 3313, 3361, 3360
2615, 3313, 3314, 3362, 3361
2616, 3314, 3315, 3363, 3362
2617, 3315, 3316, 3364, 3363
2618, 3316, 3317, 3365, 3364
2619, 3317, 3318, 3366, 3365
2620, 3318, 3319, 3367, 3366
2621, 3319, 3320, 3368, 3367
2622, 3320, 3321, 3369, 3368
2623, 3321, 3322, 3370, 3369
2624, 3322, 3323, 3371, 3370
2625, 3323, 3324, 3372, 3371
2626, 3324, 3325, 3373, 3372
2627, 3325, 3326, 3374, 3373
2628, 3326, 3327, 3375, 3374
2629, 3327, 3328, 3376, 3375
2630, 3328, 3329, 3377, 3376
2631, 3329, 3330, 3378, 3377
2632, 3330, 3331, 3379, 3378
2633, 3331, 3332, 3380, 3379
2634, 3332, 3333, 3381, 3380
2635, 3333, 3334, 3382, 3381
2636, 3334, 3335, 3383, 3382
2637, 3335, 3336, 3384, 3383
2638, 3336, 3337, 3385, 3384
2639, 3337, 3338, 3386, 3385
2640, 3338, 3339, 3387, 3386
2641, 3339, 3340, 3388, 3387
2642, 3340, 3341, 3389, 3388
2643, 3341, 3342, 3390, 3389
2644, 3342, 3343, 3391, 3390
2645, 3343, 3344, 3392, 3391
2646, 3344,  192,  193, 3392
2647,  248, 3345, 3393,  247
2648, 3345, 3346, 3394, 3393
2649, 3346, 3347, 3395, 3394
2650, 3347, 3348, 3396, 3395
2651, 3348, 3349, 3397, 3396
2652, 3349, 3350, 3398, 3397
2653, 3350, 3351, 3399, 3398
2654, 3351, 3352, 3400, 3399
2655, 3352, 3353, 3401, 3400
2656, 3353, 3354, 3402, 3401
2657, 3354, 3355, 3403, 3402
2658, 3355, 3356, 3404, 3403
2659, 3356, 3357, 3405, 3404
2660, 3357, 3358, 3406, 3405
2661, 3358, 3359, 3407, 3406
2662, 3359, 3360, 3408, 3407
2663, 3360, 3361, 3409, 3408
2664, 3361, 3362, 3410, 3409
2665, 3362, 3363, 3411, 3410
2666, 3363, 3364, 3412, 3411
2667, 3364, 3365, 3413, 3412
2668, 3365, 3366, 3414, 3413
2669, 3366, 3367, 3415, 3414
2670, 3367, 3368, 3416, 3415
2671, 3368, 3369, 3417, 3416
2672, 3369, 3370, 3418, 3417
2673, 3370, 3371, 3419, 3418
2674, 3371, 3372, 3420, 3419
2675, 3372, 3373, 3421, 3420
2676, 3373, 3374, 3422, 3421
2677, 3374, 3375, 3423, 3422
2678, 3375, 3376, 3424, 3423
2679, 3376, 3377, 3425, 3424
2680, 3377, 3378, 3426, 3425
2681, 3378, 3379, 3427, 3426
2682, 3379, 3380, 3428, 3427
2683, 3380, 3381, 3429, 3428
2684, 3381, 3382, 3430, 3429
2685, 3382, 3383, 3431, 3430
2686, 3383, 3384, 3432, 3431
2687, 3384, 3385, 3433, 3432
2688, 3385, 3386, 3434, 3433
2689, 3386, 3387, 3435, 3434
2690, 3387, 3388, 3436, 3435
2691, 3388, 3389, 3437, 3436
2692, 3389, 3390, 3438, 3437
2693, 3390, 3391, 3439, 3438
2694, 3391, 3392, 3440, 3439
2695, 3392,  193,  194, 3440
2696,  247, 3393, 3441,  246
2697, 3393, 3394, 3442, 3441
2698, 3394, 3395, 3443, 3442
2699, 3395, 3396, 3444, 3443
2700, 3396, 3397, 3445, 3444
2701, 3397, 3398, 3446, 3445
2702, 3398, 3399, 3447, 3446
2703, 3399, 3400, 3448, 3447
2704, 3400, 3401, 3449, 3448
2705, 3401, 3402, 3450, 3449
2706, 3402, 3403, 3451, 3450
2707, 3403, 3404, 3452, 3451
2708, 3404, 3405, 3453, 3452
2709, 3405, 3406, 3454, 3453
2710, 3406, 3407, 3455, 3454
2711, 3407, 3408, 3456, 3455
2712, 3408, 3409, 3457, 3456
2713, 3409, 3410, 3458, 3457
2714, 3410, 3411, 3459, 3458
2715, 3411, 3412, 3460, 3459
2716, 3412, 3413, 3461, 3460
2717, 3413, 3414, 3462, 3461
2718, 3414, 3415, 3463, 3462
2719, 3415, 3416, 3464, 3463
2720, 3416, 3417, 3465, 3464
2721, 3417, 3418, 3466, 3465
2722, 3418, 3419, 3467, 3466
2723, 3419, 3420, 3468, 3467
2724, 3420, 3421, 3469, 3468
2725, 3421, 3422, 3470, 3469
2726, 3422, 3423, 3471, 3470
2727, 3423, 3424, 3472, 3471
2728, 3424, 3425, 3473, 3472
2729, 3425, 3426, 3474, 3473
2730, 3426, 3427, 3475, 3474
2731, 3427, 3428, 3476, 3475
2732, 3428, 3429, 3477, 3476
2733, 3429, 3430, 3478, 3477
2734, 3430, 3431, 3479, 3478
2735, 3431, 3432, 3480, 3479
2736, 3432, 3433, 3481, 3480
2737, 3433, 3434, 3482, 3481
2738, 3434, 3435, 3483, 3482
2739, 3435, 3436, 3484, 3483
2740, 3436, 3437, 3485, 3484
2741, 3437, 3438, 3486, 3485
2742, 3438, 3439, 3487, 3486
2743, 3439, 3440, 3488, 3487
2744, 3440,  194,  195, 3488
2745,  246, 3441, 3489,  245
2746, 3441, 3442, 3490, 3489
2747, 3442, 3443, 3491, 3490
2748, 3443, 3444, 3492, 3491
2749, 3444, 3445, 3493, 3492
2750, 3445, 3446, 3494, 3493
2751, 3446, 3447, 3495, 3494
2752, 3447, 3448, 3496, 3495
2753, 3448, 3449, 3497, 3496
2754, 3449, 3450, 3498, 3497
2755, 3450, 3451, 3499, 3498
2756, 3451, 3452, 3500, 3499
2757, 3452, 3453, 3501, 3500
2758, 3453, 3454, 3502, 3501
2759, 3454, 3455, 3503, 3502
2760, 3455, 3456, 3504, 3503
2761, 3456, 3457, 3505, 3504
2762, 3457, 3458, 3506, 3505
2763, 3458, 3459, 3507, 3506
2764, 3459, 3460, 3508, 3507
2765, 3460, 3461, 3509, 3508
2766, 3461, 3462, 3510, 3509
2767, 3462, 3463, 3511, 3510
2768, 3463, 3464, 3512, 3511
2769, 3464, 3465, 3513, 3512
2770, 3465, 3466, 3514, 3513
2771, 3466, 3467, 3515, 3514
2772, 3467, 3468, 3516, 3515
2773, 3468, 3469, 3517, 3516
2774, 3469, 3470, 3518, 3517
2775, 3470, 3471, 3519, 3518
2776, 3471, 3472, 3520, 3519
2777, 3472, 3473, 3521, 3520
2778, 3473, 3474, 3522, 3521
2779, 3474, 3475, 3523, 3522
2780, 3475, 3476, 3524, 3523
2781, 3476, 3477, 3525, 3524
2782, 3477, 3478, 3526, 3525
2783, 3478, 3479, 3527, 3526
2784, 3479, 3480, 3528, 3527
2785, 3480, 3481, 3529, 3528
2786, 3481, 3482, 3530, 3529
2787, 3482, 3483, 3531, 3530
2788, 3483, 3484, 3532, 3531
2789, 3484, 3485, 3533, 3532
2790, 3485, 3486, 3534, 3533
2791, 3486, 3487, 3535, 3534
2792, 3487, 3488, 3536, 3535
2793, 3488,  195,  196, 3536
2794,  245, 3489,  244,    6
2795, 3489, 3490,  243,  244
2796, 3490, 3491,  242,  243
2797, 3491, 3492,  241,  242
2798, 3492, 3493,  240,  241
2799, 3493, 3494,  239,  240
2800, 3494, 3495,  238,  239
2801, 3495, 3496,  237,  238
2802, 3496, 3497,  236,  237
2803, 3497, 3498,  235,  236
2804, 3498, 3499,  234,  235
2805, 3499, 3500,  233,  234
2806, 3500, 3501,  232,  233
2807, 3501, 3502,  231,  232
2808, 3502, 3503,  230,  231
2809, 3503, 3504,  229,  230
2810, 3504, 3505,  228,  229
2811, 3505, 3506,  227,  228
2812, 3506, 3507,  226,  227
2813, 3507, 3508,  225,  226
2814, 3508, 3509,  224,  225
2815, 3509, 3510,  223,  224
2816, 3510, 3511,  222,  223
2817, 3511, 3512,  221,  222
2818, 3512, 3513,  220,  221
2819, 3513, 3514,  219,  220
2820, 3514, 3515,  218,  219
2821, 3515, 3516,  217,  218
2822, 3516, 3517,  216,  217
2823, 3517, 3518,  215,  216
2824, 3518, 3519,  214,  215
2825, 3519, 3520,  213,  214
2826, 3520, 3521,  212,  213
2827, 3521, 3522,  211,  212
2828, 3522, 3523,  210,  211
2829, 3523, 3524,  209,  210
2830, 3524, 3525,  208,  209
2831, 3525, 3526,  207,  208
2832, 3526, 3527,  206,  207
2833, 3527, 3528,  205,  206
2834, 3528, 3529,  204,  205
2835, 3529, 3530,  203,  204
2836, 3530, 3531,  202,  203
2837, 3531, 3532,  201,  202
2838, 3532, 3533,  200,  201
2839, 3533, 3534,  199,  200
2840, 3534, 3535,  198,  199
2841, 3535, 3536,  197,  198
2842, 3536,  196,    5,  197
2843,    7,  273, 3537,  376
2844,  273,  274, 3538, 3537
2845,  274,  275, 3539, 3538
2846,  275,  276, 3540, 3539
2847,  276,  277, 3541, 3540
2848,  277,  278, 3542, 3541
2849,  278,  279, 3543, 3542
2850,  279,  280, 3544, 3543
2851,  280,  281, 3545, 3544
2852,  281,  282, 3546, 3545
2853,  282,  283, 3547, 3546
2854,  283,  284, 3548, 3547
2855,  284,  285, 3549, 3548
2856,  285,  286, 3550, 3549
2857,  286,  287, 3551, 3550
2858,  287,  288, 3552, 3551
2859,  288,  289, 3553, 3552
2860,  289,  290, 3554, 3553
2861,  290,  291, 3555, 3554
2862,  291,  292, 3556, 3555
2863,  292,  293, 3557, 3556
2864,  293,  294, 3558, 3557
2865,  294,  295, 3559, 3558
2866,  295,  296, 3560, 3559
2867,  296,  297, 3561, 3560
2868,  297,  298, 3562, 3561
2869,  298,  299, 3563, 3562
2870,  299,  300, 3564, 3563
2871,  300,  301, 3565, 3564
2872,  301,  302, 3566, 3565
2873,  302,  303, 3567, 3566
2874,  303,  304, 3568, 3567
2875,  304,  305, 3569, 3568
2876,  305,  306, 3570, 3569
2877,  306,  307, 3571, 3570
2878,  307,  308, 3572, 3571
2879,  308,  309, 3573, 3572
2880,  309,  310, 3574, 3573
2881,  310,  311, 3575, 3574
2882,  311,  312, 3576, 3575
2883,  312,  313, 3577, 3576
2884,  313,  314, 3578, 3577
2885,  314,  315, 3579, 3578
2886,  315,  316, 3580, 3579
2887,  316,  317, 3581, 3580
2888,  317,  318, 3582, 3581
2889,  318,  319, 3583, 3582
2890,  319,  320, 3584, 3583
2891,  320,    8,  321, 3584
2892,  376, 3537, 3585,  375
2893, 3537, 3538, 3586, 3585
2894, 3538, 3539, 3587, 3586
2895, 3539, 3540, 3588, 3587
2896, 3540, 3541, 3589, 3588
2897, 3541, 3542, 3590, 3589
2898, 3542, 3543, 3591, 3590
2899, 3543, 3544, 3592, 3591
2900, 3544, 3545, 3593, 3592
2901, 3545, 3546, 3594, 3593
2902, 3546, 3547, 3595, 3594
2903, 3547, 3548, 3596, 3595
2904, 3548, 3549, 3597, 3596
2905, 3549, 3550, 3598, 3597
2906, 3550, 3551, 3599, 3598
2907, 3551, 3552, 3600, 3599
2908, 3552, 3553, 3601, 3600
2909, 3553, 3554, 3602, 3601
2910, 3554, 3555, 3603, 3602
2911, 3555, 3556, 3604, 3603
2912, 3556, 3557, 3605, 3604
2913, 3557, 3558, 3606, 3605
2914, 3558, 3559, 3607, 3606
2915, 3559, 3560, 3608, 3607
2916, 3560, 3561, 3609, 3608
2917, 3561, 3562, 3610, 3609
2918, 3562, 3563, 3611, 3610
2919, 3563, 3564, 3612, 3611
2920, 3564, 3565, 3613, 3612
2921, 3565, 3566, 3614, 3613
2922, 3566, 3567, 3615, 3614
2923, 3567, 3568, 3616, 3615
2924, 3568, 3569, 3617, 3616
2925, 3569, 3570, 3618, 3617
2926, 3570, 3571, 3619, 3618
2927, 3571, 3572, 3620, 3619
2928, 3572, 3573, 3621, 3620
2929, 3573, 3574, 3622, 3621
2930, 3574, 3575, 3623, 3622
2931, 3575, 3576, 3624, 3623
2932, 3576, 3577, 3625, 3624
2933, 3577, 3578, 3626, 3625
2934, 3578, 3579, 3627, 3626
2935, 3579, 3580, 3628, 3627
2936, 3580, 3581, 3629, 3628
2937, 3581, 3582, 3630, 3629
2938, 3582, 3583, 3631, 3630
2939, 3583, 3584, 3632, 3631
2940, 3584,  321,  322, 3632
2941,  375, 3585, 3633,  374
2942, 3585, 3586, 3634, 3633
2943, 3586, 3587, 3635, 3634
2944, 3587, 3588, 3636, 3635
2945, 3588, 3589, 3637, 3636
2946, 3589, 3590, 3638, 3637
2947, 3590, 3591, 3639, 3638
2948, 3591, 3592, 3640, 3639
2949, 3592, 3593, 3641, 3640
2950, 3593, 3594, 3642, 3641
2951, 3594, 3595, 3643, 3642
2952, 3595, 3596, 3644, 3643
2953, 3596, 3597, 3645, 3644
2954, 3597, 3598, 3646, 3645
2955, 3598, 3599, 3647, 3646
2956, 3599, 3600, 3648, 3647
2957, 3600, 3601, 3649, 3648
2958, 3601, 3602, 3650, 3649
2959, 3602, 3603, 3651, 3650
2960, 3603, 3604, 3652, 3651
2961, 3604, 3605, 3653, 3652
2962, 3605, 3606, 3654, 3653
2963, 3606, 3607, 3655, 3654
2964, 3607, 3608, 3656, 3655
2965, 3608, 3609, 3657, 3656
2966, 3609, 3610, 3658, 3657
2967, 3610, 3611, 3659, 3658
2968, 3611, 3612, 3660, 3659
2969, 3612, 3613, 3661, 3660
2970, 3613, 3614, 3662, 3661
2971, 3614, 3615, 3663, 3662
2972, 3615, 3616, 3664, 3663
2973, 3616, 3617, 3665, 3664
2974, 3617, 3618, 3666, 3665
2975, 3618, 3619, 3667, 3666
2976, 3619, 3620, 3668, 3667
2977, 3620, 3621, 3669, 3668
2978, 3621, 3622, 3670, 3669
2979, 3622, 3623, 3671, 3670
2980, 3623, 3624, 3672, 3671
2981, 3624, 3625, 3673, 3672
2982, 3625, 3626, 3674, 3673
2983, 3626, 3627, 3675, 3674
2984, 3627, 3628, 3676, 3675
2985, 3628, 3629, 3677, 3676
2986, 3629, 3630, 3678, 3677
2987, 3630, 3631, 3679, 3678
2988, 3631, 3632, 3680, 3679
2989, 3632,  322,  323, 3680
2990,  374, 3633, 3681,  373
2991, 3633, 3634, 3682, 3681
2992, 3634, 3635, 3683, 3682
2993, 3635, 3636, 3684, 3683
2994, 3636, 3637, 3685, 3684
2995, 3637, 3638, 3686, 3685
2996, 3638, 3639, 3687, 3686
2997, 3639, 3640, 3688, 3687
2998, 3640, 3641, 3689, 3688
2999, 3641, 3642, 3690, 3689
3000, 3642, 3643, 3691, 3690
3001, 3643, 3644, 3692, 3691
3002, 3644, 3645, 3693, 3692
3003, 3645, 3646, 3694, 3693
3004, 3646, 3647, 3695, 3694
3005, 3647, 3648, 3696, 3695
3006, 3648, 3649, 3697, 3696
3007, 3649, 3650, 3698, 3697
3008, 3650, 3651, 3699, 3698
3009, 3651, 3652, 3700, 3699
3010, 3652, 3653, 3701, 3700
3011, 3653, 3654, 3702, 3701
3012, 3654, 3655, 3703, 3702
3013, 3655, 3656, 3704, 3703
3014, 3656, 3657, 3705, 3704
3015, 3657, 3658, 3706, 3705
3016, 3658, 3659, 3707, 3706
3017, 3659, 3660, 3708, 3707
3018, 3660, 3661, 3709, 3708
3019, 3661, 3662, 3710, 3709
3020, 3662, 3663, 3711, 3710
3021, 3663, 3664, 3712, 3711
3022, 3664, 3665, 3713, 3712
3023, 3665, 3666, 3714, 3713
3024, 3666, 3667, 3715, 3714
3025, 3667, 3668, 3716, 3715
3026, 3668, 3669, 3717, 3716
3027, 3669, 3670, 3718, 3717
3028, 3670, 3671, 3719, 3718
3029, 3671, 3672, 3720, 3719
3030, 3672, 3673, 3721, 3720
3031, 3673, 3674, 3722, 3721
3032, 3674, 3675, 3723, 3722
3033, 3675, 3676, 3724, 3723
3034, 3676, 3677, 3725, 3724
3035, 3677, 3678, 3726, 3725
3036, 3678, 3679, 3727, 3726
3037, 3679, 3680, 3728, 3727
3038, 3680,  323,  324, 3728
3039,  373, 3681, 3729,  372
3040, 3681, 3682, 3730, 3729
3041, 3682, 3683, 3731, 3730
3042, 3683, 3684, 3732, 3731
3043, 3684, 3685, 3733, 3732
3044, 3685, 3686, 3734, 3733
3045, 3686, 3687, 3735, 3734
3046, 3687, 3688, 3736, 3735
3047, 3688, 3689, 3737, 3736
3048, 3689, 3690, 3738, 3737
3049, 3690, 3691, 3739, 3738
3050, 3691, 3692, 3740, 3739
3051, 3692, 3693, 3741, 3740
3052, 3693, 3694, 3742, 3741
3053, 3694, 3695, 3743, 3742
3054, 3695, 3696, 3744, 3743
3055, 3696, 3697, 3745, 3744
3056, 3697, 3698, 3746, 3745
3057, 3698, 3699, 3747, 3746
3058, 3699, 3700, 3748, 3747
3059, 3700, 3701, 3749, 3748
3060, 3701, 3702, 3750, 3749
3061, 3702, 3703, 3751, 3750
3062, 3703, 3704, 3752, 3751
3063, 3704, 3705, 3753, 3752
3064, 3705, 3706, 3754, 3753
3065, 3706, 3707, 3755, 3754
3066, 3707, 3708, 3756, 3755
3067, 3708, 3709, 3757, 3756
3068, 3709, 3710, 3758, 3757
3069, 3710, 3711, 3759, 3758
3070, 3711, 3712, 3760, 3759
3071, 3712, 3713, 3761, 3760
3072, 3713, 3714, 3762, 3761
3073, 3714, 3715, 3763, 3762
3074, 3715, 3716, 3764, 3763
3075, 3716, 3717, 3765, 3764
3076, 3717, 3718, 3766, 3765
3077, 3718, 3719, 3767, 3766
3078, 3719, 3720, 3768, 3767
3079, 3720, 3721, 3769, 3768
3080, 3721, 3722, 3770, 3769
3081, 3722, 3723, 3771, 3770
3082, 3723, 3724, 3772, 3771
3083, 3724, 3725, 3773, 3772
3084, 3725, 3726, 3774, 3773
3085, 3726, 3727, 3775, 3774
3086, 3727, 3728, 3776, 3775
3087, 3728,  324,  325, 3776
3088,  372, 3729, 3777,  371
3089, 3729, 3730, 3778, 3777
3090, 3730, 3731, 3779, 3778
3091, 3731, 3732, 3780, 3779
3092, 3732, 3733, 3781, 3780
3093, 3733, 3734, 3782, 3781
3094, 3734, 3735, 3783, 3782
3095, 3735, 3736, 3784, 3783
3096, 3736, 3737, 3785, 3784
3097, 3737, 3738, 3786, 3785
3098, 3738, 3739, 3787, 3786
3099, 3739, 3740, 3788, 3787
3100, 3740, 3741, 3789, 3788
3101, 3741, 3742, 3790, 3789
3102, 3742, 3743, 3791, 3790
3103, 3743, 3744, 3792, 3791
3104, 3744, 3745, 3793, 3792
3105, 3745, 3746, 3794, 3793
3106, 3746, 3747, 3795, 3794
3107, 3747, 3748, 3796, 3795
3108, 3748, 3749, 3797, 3796
3109, 3749, 3750, 3798, 3797
3110, 3750, 3751, 3799, 3798
3111, 3751, 3752, 3800, 3799
3112, 3752, 3753, 3801, 3800
3113, 3753, 3754, 3802, 3801
3114, 3754, 3755, 3803, 3802
3115, 3755, 3756, 3804, 3803
3116, 3756, 3757, 3805, 3804
3117, 3757, 3758, 3806, 3805
3118, 3758, 3759, 3807, 3806
3119, 3759, 3760, 3808, 3807
3120, 3760, 3761, 3809, 3808
3121, 3761, 3762, 3810, 3809
3122, 3762, 3763, 3811, 3810
3123, 3763, 3764, 3812, 3811
3124, 3764, 3765, 3813, 3812
3125, 3765, 3766, 3814, 3813
3126, 3766, 3767, 3815, 3814
3127, 3767, 3768, 3816, 3815
3128, 3768, 3769, 3817, 3816
3129, 3769, 3770, 3818, 3817
3130, 3770, 3771, 3819, 3818
3131, 3771, 3772, 3820, 3819
3132, 3772, 3773, 3821, 3820
3133, 3773, 3774, 3822, 3821
3134, 3774, 3775, 3823, 3822
3135, 3775, 3776, 3824, 3823
3136, 3776,  325,  326, 3824
3137,  371, 3777, 3825,  370
3138, 3777, 3778, 3826, 3825
3139, 3778, 3779, 3827, 3826
3140, 3779, 3780, 3828, 3827
3141, 3780, 3781, 3829, 3828
3142, 3781, 3782, 3830, 3829
3143, 3782, 3783, 3831, 3830
3144, 3783, 3784, 3832, 3831
3145, 3784, 3785, 3833, 3832
3146, 3785, 3786, 3834, 3833
3147, 3786, 3787, 3835, 3834
3148, 3787, 3788, 3836, 3835
3149, 3788, 3789, 3837, 3836
3150, 3789, 3790, 3838, 3837
3151, 3790, 3791, 3839, 3838
3152, 3791, 3792, 3840, 3839
3153, 3792, 3793, 3841, 3840
3154, 3793, 3794, 3842, 3841
3155, 3794, 3795, 3843, 3842
3156, 3795, 3796, 3844, 3843
3157, 3796, 3797, 3845, 3844
3158, 3797, 3798, 3846, 3845
3159, 3798, 3799, 3847, 3846
3160, 3799, 3800, 3848, 3847
3161, 3800, 3801, 3849, 3848
3162, 3801, 3802, 3850, 3849
3163, 3802, 3803, 3851, 3850
3164, 3803, 3804, 3852, 3851
3165, 3804, 3805, 3853, 3852
3166, 3805, 3806, 3854, 3853
3167, 3806, 3807, 3855, 3854
3168, 3807, 3808, 3856, 3855
3169, 3808, 3809, 3857, 3856
3170, 3809, 3810, 3858, 3857
3171, 3810, 3811, 3859, 3858
3172, 3811, 3812, 3860, 3859
3173, 3812, 3813, 3861, 3860
3174, 3813, 3814, 3862, 3861
3175, 3814, 3815, 3863, 3862
3176, 3815, 3816, 3864, 3863
3177, 3816, 3817, 3865, 3864
3178, 3817, 3818, 3866, 3865
3179, 3818, 3819, 3867, 3866
3180, 3819, 3820, 3868, 3867
3181, 3820, 3821, 3869, 3868
3182, 3821, 3822, 3870, 3869
3183, 3822, 3823, 3871, 3870
3184, 3823, 3824, 3872, 3871
3185, 3824,  326,  327, 3872
3186,  370, 3825, 3873,  369
3187, 3825, 3826, 3874, 3873
3188, 3826, 3827, 3875, 3874
3189, 3827, 3828, 3876, 3875
3190, 3828, 3829, 3877, 3876
3191, 3829, 3830, 3878, 3877
3192, 3830, 3831, 3879, 3878
3193, 3831, 3832, 3880, 3879
3194, 3832, 3833, 3881, 3880
3195, 3833, 3834, 3882, 3881
3196, 3834, 3835, 3883, 3882
3197, 3835, 3836, 3884, 3883
3198, 3836, 3837, 3885, 3884
3199, 3837, 3838, 3886, 3885
3200, 3838, 3839, 3887, 3886
3201, 3839, 3840, 3888, 3887
3202, 3840, 3841, 3889, 3888
3203, 3841, 3842, 3890, 3889
3204, 3842, 3843, 3891, 3890
3205, 3843, 3844, 3892, 3891
3206, 3844, 3845, 3893, 3892
3207, 3845, 3846, 3894, 3893
3208, 3846, 3847, 3895, 3894
3209, 3847, 3848, 3896, 3895
3210, 3848, 3849, 3897, 3896
3211, 3849, 3850, 3898, 3897
3212, 3850, 3851, 3899, 3898
3213, 3851, 3852, 3900, 3899
3214, 3852, 3853, 3901, 3900
3215, 3853, 3854, 3902, 3901
3216, 3854, 3855, 3903, 3902
3217, 3855, 3856, 3904, 3903
3218, 3856, 3857, 3905, 3904
3219, 3857, 3858, 3906, 3905
3220, 3858, 3859, 3907, 3906
3221, 3859, 3860, 3908, 3907
3222, 3860, 3861, 3909, 3908
3223, 3861, 3862, 3910, 3909
3224, 3862, 3863, 3911, 3910
3225, 3863, 3864, 3912, 3911
3226, 3864, 3865, 3913, 3912
3227, 3865, 3866, 3914, 3913
3228, 3866, 3867, 3915, 3914
3229, 3867, 3868, 3916, 3915
3230, 3868, 3869, 3917, 3916
3231, 3869, 3870, 3918, 3917
3232, 3870, 3871, 3919, 3918
3233, 3871, 3872, 3920, 3919
3234, 3872,  327,  328, 3920
3235,  369, 3873, 3921,  368
3236, 3873, 3874, 3922, 3921
3237, 3874, 3875, 3923, 3922
3238, 3875, 3876, 3924, 3923
3239, 3876, 3877, 3925, 3924
3240, 3877, 3878, 3926, 3925
3241, 3878, 3879, 3927, 3926
3242, 3879, 3880, 3928, 3927
3243, 3880, 3881, 3929, 3928
3244, 3881, 3882, 3930, 3929
3245, 3882, 3883, 3931, 3930
3246, 3883, 3884, 3932, 3931
3247, 3884, 3885, 3933, 3932
3248, 3885, 3886, 3934, 3933
3249, 3886, 3887, 3935, 3934
3250, 3887, 3888, 3936, 3935
3251, 3888, 3889, 3937, 3936
3252, 3889, 3890, 3938, 3937
3253, 3890, 3891, 3939, 3938
3254, 3891, 3892, 3940, 3939
3255, 3892, 3893, 3941, 3940
3256, 3893, 3894, 3942, 3941
3257, 3894, 3895, 3943, 3942
3258, 3895, 3896, 3944, 3943
3259, 3896, 3897, 3945, 3944
3260, 3897, 3898, 3946, 3945
3261, 3898, 3899, 3947, 3946
3262, 3899, 3900, 3948, 3947
3263, 3900, 3901, 3949, 3948
3264, 3901, 3902, 3950, 3949
3265, 3902, 3903, 3951, 3950
3266, 3903, 3904, 3952, 3951
3267, 3904, 3905, 3953, 3952
3268, 3905, 3906, 3954, 3953
3269, 3906, 3907, 3955, 3954
3270, 3907, 3908, 3956, 3955
3271, 3908, 3909, 3957, 3956
3272, 3909, 3910, 3958, 3957
3273, 3910, 3911, 3959, 3958
3274, 3911, 3912, 3960, 3959
3275, 3912, 3913, 3961, 3960
3276, 3913, 3914, 3962, 3961
3277, 3914, 3915, 3963, 3962
3278, 3915, 3916, 3964, 3963
3279, 3916, 3917, 3965, 3964
3280, 3917, 3918, 3966, 3965
3281, 3918, 3919, 3967, 3966
3282, 3919, 3920, 3968, 3967
3283, 3920,  328,  329, 3968
3284,  368, 3921, 3969,  367
3285, 3921, 3922, 3970, 3969
3286, 3922, 3923, 3971, 3970
3287, 3923, 3924, 3972, 3971
3288, 3924, 3925, 3973, 3972
3289, 3925, 3926, 3974, 3973
3290, 3926, 3927, 3975, 3974
3291, 3927, 3928, 3976, 3975
3292, 3928, 3929, 3977, 3976
3293, 3929, 3930, 3978, 3977
3294, 3930, 3931, 3979, 3978
3295, 3931, 3932, 3980, 3979
3296, 3932, 3933, 3981, 3980
3297, 3933, 3934, 3982, 3981
3298, 3934, 3935, 3983, 3982
3299, 3935, 3936, 3984, 3983
3300, 3936, 3937, 3985, 3984
3301, 3937, 3938, 3986, 3985
3302, 3938, 3939, 3987, 3986
3303, 3939, 3940, 3988, 3987
3304, 3940, 3941, 3989, 3988
3305, 3941, 3942, 3990, 3989
3306, 3942, 3943, 3991, 3990
3307, 3943, 3944, 3992, 3991
3308, 3944, 3945, 3993, 3992
3309, 3945, 3946, 3994, 3993
3310, 3946, 3947, 3995, 3994
3311, 3947, 3948, 3996, 3995
3312, 3948, 3949, 3997, 3996
3313, 3949, 3950, 3998, 3997
3314, 3950, 3951, 3999, 3998
3315, 3951, 3952, 4000, 3999
3316, 3952, 3953, 4001, 4000
3317, 3953, 3954, 4002, 4001
3318, 3954, 3955, 4003, 4002
3319, 3955, 3956, 4004, 4003
3320, 3956, 3957, 4005, 4004
3321, 3957, 3958, 4006, 4005
3322, 3958, 3959, 4007, 4006
3323, 3959, 3960, 4008, 4007
3324, 3960, 3961, 4009, 4008
3325, 3961, 3962, 4010, 4009
3326, 3962, 3963, 4011, 4010
3327, 3963, 3964, 4012, 4011
3328, 3964, 3965, 4013, 4012
3329, 3965, 3966, 4014, 4013
3330, 3966, 3967, 4015, 4014
3331, 3967, 3968, 4016, 4015
3332, 3968,  329,  330, 4016
3333,  367, 3969, 4017,  366
3334, 3969, 3970, 4018, 4017
3335, 3970, 3971, 4019, 4018
3336, 3971, 3972, 4020, 4019
3337, 3972, 3973, 4021, 4020
3338, 3973, 3974, 4022, 4021
3339, 3974, 3975, 4023, 4022
3340, 3975, 3976, 4024, 4023
3341, 3976, 3977, 4025, 4024
3342, 3977, 3978, 4026, 4025
3343, 3978, 3979, 4027, 4026
3344, 3979, 3980, 4028, 4027
3345, 3980, 3981, 4029, 4028
3346, 3981, 3982, 4030, 4029
3347, 3982, 3983, 4031, 4030
3348, 3983, 3984, 4032, 4031
3349, 3984, 3985, 4033, 4032
3350, 3985, 3986, 4034, 4033
3351, 3986, 3987, 4035, 4034
3352, 3987, 3988, 4036, 4035
3353, 3988, 3989, 4037, 4036
3354, 3989, 3990, 4038, 4037
3355, 3990, 3991, 4039, 4038
3356, 3991, 3992, 4040, 4039
3357, 3992, 3993, 4041, 4040
3358, 3993, 3994, 4042, 4041
3359, 3994, 3995, 4043, 4042
3360, 3995, 3996, 4044, 4043
3361, 3996, 3997, 4045, 4044
3362, 3997, 3998, 4046, 4045
3363, 3998, 3999, 4047, 4046
3364, 3999, 4000, 4048, 4047
3365, 4000, 4001, 4049, 4048
3366, 4001, 4002, 4050, 4049
3367, 4002, 4003, 4051, 4050
3368, 4003, 4004, 4052, 4051
3369, 4004, 4005, 4053, 4052
3370, 4005, 4006, 4054, 4053
3371, 4006, 4007, 4055, 4054
3372, 4007, 4008, 4056, 4055
3373, 4008, 4009, 4057, 4056
3374, 4009, 4010, 4058, 4057
3375, 4010, 4011, 4059, 4058
3376, 4011, 4012, 4060, 4059
3377, 4012, 4013, 4061, 4060
3378, 4013, 4014, 4062, 4061
3379, 4014, 4015, 4063, 4062
3380, 4015, 4016, 4064, 4063
3381, 4016,  330,  331, 4064
3382,  366, 4017, 4065,  365
3383, 4017, 4018, 4066, 4065
3384, 4018, 4019, 4067, 4066
3385, 4019, 4020, 4068, 4067
3386, 4020, 4021, 4069, 4068
3387, 4021, 4022, 4070, 4069
3388, 4022, 4023, 4071, 4070
3389, 4023, 4024, 4072, 4071
3390, 4024, 4025, 4073, 4072
3391, 4025, 4026, 4074, 4073
3392, 4026, 4027, 4075, 4074
3393, 4027, 4028, 4076, 4075
3394, 4028, 4029, 4077, 4076
3395, 4029, 4030, 4078, 4077
3396, 4030, 4031, 4079, 4078
3397, 4031, 4032, 4080, 4079
3398, 4032, 4033, 4081, 4080
3399, 4033, 4034, 4082, 4081
3400, 4034, 4035, 4083, 4082
3401, 4035, 4036, 4084, 4083
3402, 4036, 4037, 4085, 4084
3403, 4037, 4038, 4086, 4085
3404, 4038, 4039, 4087, 4086
3405, 4039, 4040, 4088, 4087
3406, 4040, 4041, 4089, 4088
3407, 4041, 4042, 4090, 4089
3408, 4042, 4043, 4091, 4090
3409, 4043, 4044, 4092, 4091
3410, 4044, 4045, 4093, 4092
3411, 4045, 4046, 4094, 4093
3412, 4046, 4047, 4095, 4094
3413, 4047, 4048, 4096, 4095
3414, 4048, 4049, 4097, 4096
3415, 4049, 4050, 4098, 4097
3416, 4050, 4051, 4099, 4098
3417, 4051, 4052, 4100, 4099
3418, 4052, 4053, 4101, 4100
3419, 4053, 4054, 4102, 4101
3420, 4054, 4055, 4103, 4102
3421, 4055, 4056, 4104, 4103
3422, 4056, 4057, 4105, 4104
3423, 4057, 4058, 4106, 4105
3424, 4058, 4059, 4107, 4106
3425, 4059, 4060, 4108, 4107
3426, 4060, 4061, 4109, 4108
3427, 4061, 4062, 4110, 4109
3428, 4062, 4063, 4111, 4110
3429, 4063, 4064, 4112, 4111
3430, 4064,  331,  332, 4112
3431,  365, 4065, 4113,  364
3432, 4065, 4066, 4114, 4113
3433, 4066, 4067, 4115, 4114
3434, 4067, 4068, 4116, 4115
3435, 4068, 4069, 4117, 4116
3436, 4069, 4070, 4118, 4117
3437, 4070, 4071, 4119, 4118
3438, 4071, 4072, 4120, 4119
3439, 4072, 4073, 4121, 4120
3440, 4073, 4074, 4122, 4121
3441, 4074, 4075, 4123, 4122
3442, 4075, 4076, 4124, 4123
3443, 4076, 4077, 4125, 4124
3444, 4077, 4078, 4126, 4125
3445, 4078, 4079, 4127, 4126
3446, 4079, 4080, 4128, 4127
3447, 4080, 4081, 4129, 4128
3448, 4081, 4082, 4130, 4129
3449, 4082, 4083, 4131, 4130
3450, 4083, 4084, 4132, 4131
3451, 4084, 4085, 4133, 4132
3452, 4085, 4086, 4134, 4133
3453, 4086, 4087, 4135, 4134
3454, 4087, 4088, 4136, 4135
3455, 4088, 4089, 4137, 4136
3456, 4089, 4090, 4138, 4137
3457, 4090, 4091, 4139, 4138
3458, 4091, 4092, 4140, 4139
3459, 4092, 4093, 4141, 4140
3460, 4093, 4094, 4142, 4141
3461, 4094, 4095, 4143, 4142
3462, 4095, 4096, 4144, 4143
3463, 4096, 4097, 4145, 4144
3464, 4097, 4098, 4146, 4145
3465, 4098, 4099, 4147, 4146
3466, 4099, 4100, 4148, 4147
3467, 4100, 4101, 4149, 4148
3468, 4101, 4102, 4150, 4149
3469, 4102, 4103, 4151, 4150
3470, 4103, 4104, 4152, 4151
3471, 4104, 4105, 4153, 4152
3472, 4105, 4106, 4154, 4153
3473, 4106, 4107, 4155, 4154
3474, 4107, 4108, 4156, 4155
3475, 4108, 4109, 4157, 4156
3476, 4109, 4110, 4158, 4157
3477, 4110, 4111, 4159, 4158
3478, 4111, 4112, 4160, 4159
3479, 4112,  332,  333, 4160
3480,  364, 4113, 4161,  363
3481, 4113, 4114, 4162, 4161
3482, 4114, 4115, 4163, 4162
3483, 4115, 4116, 4164, 4163
3484, 4116, 4117, 4165, 4164
3485, 4117, 4118, 4166, 4165
3486, 4118, 4119, 4167, 4166
3487, 4119, 4120, 4168, 4167
3488, 4120, 4121, 4169, 4168
3489, 4121, 4122, 4170, 4169
3490, 4122, 4123, 4171, 4170
3491, 4123, 4124, 4172, 4171
3492, 4124, 4125, 4173, 4172
3493, 4125, 4126, 4174, 4173
3494, 4126, 4127, 4175, 4174
3495, 4127, 4128, 4176, 4175
3496, 4128, 4129, 4177, 4176
3497, 4129, 4130, 4178, 4177
3498, 4130, 4131, 4179, 4178
3499, 4131, 4132, 4180, 4179
3500, 4132, 4133, 4181, 4180
3501, 4133, 4134, 4182, 4181
3502, 4134, 4135, 4183, 4182
3503, 4135, 4136, 4184, 4183
3504, 4136, 4137, 4185, 4184
3505, 4137, 4138, 4186, 4185
3506, 4138, 4139, 4187, 4186
3507, 4139, 4140, 4188, 4187
3508, 4140, 4141, 4189, 4188
3509, 4141, 4142, 4190, 4189
3510, 4142, 4143, 4191, 4190
3511, 4143, 4144, 4192, 4191
3512, 4144, 4145, 4193, 4192
3513, 4145, 4146, 4194, 4193
3514, 4146, 4147, 4195, 4194
3515, 4147, 4148, 4196, 4195
3516, 4148, 4149, 4197, 4196
3517, 4149, 4150, 4198, 4197
3518, 4150, 4151, 4199, 4198
3519, 4151, 4152, 4200, 4199
3520, 4152, 4153, 4201, 4200
3521, 4153, 4154, 4202, 4201
3522, 4154, 4155, 4203, 4202
3523, 4155, 4156, 4204, 4203
3524, 4156, 4157, 4205, 4204
3525, 4157, 4158, 4206, 4205
3526, 4158, 4159, 4207, 4206
3527, 4159, 4160, 4208, 4207
3528, 4160,  333,  334, 4208
3529,  363, 4161, 4209,  362
3530, 4161, 4162, 4210, 4209
3531, 4162, 4163, 4211, 4210
3532, 4163, 4164, 4212, 4211
3533, 4164, 4165, 4213, 4212
3534, 4165, 4166, 4214, 4213
3535, 4166, 4167, 4215, 4214
3536, 4167, 4168, 4216, 4215
3537, 4168, 4169, 4217, 4216
3538, 4169, 4170, 4218, 4217
3539, 4170, 4171, 4219, 4218
3540, 4171, 4172, 4220, 4219
3541, 4172, 4173, 4221, 4220
3542, 4173, 4174, 4222, 4221
3543, 4174, 4175, 4223, 4222
3544, 4175, 4176, 4224, 4223
3545, 4176, 4177, 4225, 4224
3546, 4177, 4178, 4226, 4225
3547, 4178, 4179, 4227, 4226
3548, 4179, 4180, 4228, 4227
3549, 4180, 4181, 4229, 4228
3550, 4181, 4182, 4230, 4229
3551, 4182, 4183, 4231, 4230
3552, 4183, 4184, 4232, 4231
3553, 4184, 4185, 4233, 4232
3554, 4185, 4186, 4234, 4233
3555, 4186, 4187, 4235, 4234
3556, 4187, 4188, 4236, 4235
3557, 4188, 4189, 4237, 4236
3558, 4189, 4190, 4238, 4237
3559, 4190, 4191, 4239, 4238
3560, 4191, 4192, 4240, 4239
3561, 4192, 4193, 4241, 4240
3562, 4193, 4194, 4242, 4241
3563, 4194, 4195, 4243, 4242
3564, 4195, 4196, 4244, 4243
3565, 4196, 4197, 4245, 4244
3566, 4197, 4198, 4246, 4245
3567, 4198, 4199, 4247, 4246
3568, 4199, 4200, 4248, 4247
3569, 4200, 4201, 4249, 4248
3570, 4201, 4202, 4250, 4249
3571, 4202, 4203, 4251, 4250
3572, 4203, 4204, 4252, 4251
3573, 4204, 4205, 4253, 4252
3574, 4205, 4206, 4254, 4253
3575, 4206, 4207, 4255, 4254
3576, 4207, 4208, 4256, 4255
3577, 4208,  334,  335, 4256
3578,  362, 4209, 4257,  361
3579, 4209, 4210, 4258, 4257
3580, 4210, 4211, 4259, 4258
3581, 4211, 4212, 4260, 4259
3582, 4212, 4213, 4261, 4260
3583, 4213, 4214, 4262, 4261
3584, 4214, 4215, 4263, 4262
3585, 4215, 4216, 4264, 4263
3586, 4216, 4217, 4265, 4264
3587, 4217, 4218, 4266, 4265
3588, 4218, 4219, 4267, 4266
3589, 4219, 4220, 4268, 4267
3590, 4220, 4221, 4269, 4268
3591, 4221, 4222, 4270, 4269
3592, 4222, 4223, 4271, 4270
3593, 4223, 4224, 4272, 4271
3594, 4224, 4225, 4273, 4272
3595, 4225, 4226, 4274, 4273
3596, 4226, 4227, 4275, 4274
3597, 4227, 4228, 4276, 4275
3598, 4228, 4229, 4277, 4276
3599, 4229, 4230, 4278, 4277
3600, 4230, 4231, 4279, 4278
3601, 4231, 4232, 4280, 4279
3602, 4232, 4233, 4281, 4280
3603, 4233, 4234, 4282, 4281
3604, 4234, 4235, 4283, 4282
3605, 4235, 4236, 4284, 4283
3606, 4236, 4237, 4285, 4284
3607, 4237, 4238, 4286, 4285
3608, 4238, 4239, 4287, 4286
3609, 4239, 4240, 4288, 4287
3610, 4240, 4241, 4289, 4288
3611, 4241, 4242, 4290, 4289
3612, 4242, 4243, 4291, 4290
3613, 4243, 4244, 4292, 4291
3614, 4244, 4245, 4293, 4292
3615, 4245, 4246, 4294, 4293
3616, 4246, 4247, 4295, 4294
3617, 4247, 4248, 4296, 4295
3618, 4248, 4249, 4297, 4296
3619, 4249, 4250, 4298, 4297
3620, 4250, 4251, 4299, 4298
3621, 4251, 4252, 4300, 4299
3622, 4252, 4253, 4301, 4300
3623, 4253, 4254, 4302, 4301
3624, 4254, 4255, 4303, 4302
3625, 4255, 4256, 4304, 4303
3626, 4256,  335,  336, 4304
3627,  361, 4257, 4305,  360
3628, 4257, 4258, 4306, 4305
3629, 4258, 4259, 4307, 4306
3630, 4259, 4260, 4308, 4307
3631, 4260, 4261, 4309, 4308
3632, 4261, 4262, 4310, 4309
3633, 4262, 4263, 4311, 4310
3634, 4263, 4264, 4312, 4311
3635, 4264, 4265, 4313, 4312
3636, 4265, 4266, 4314, 4313
3637, 4266, 4267, 4315, 4314
3638, 4267, 4268, 4316, 4315
3639, 4268, 4269, 4317, 4316
3640, 4269, 4270, 4318, 4317
3641, 4270, 4271, 4319, 4318
3642, 4271, 4272, 4320, 4319
3643, 4272, 4273, 4321, 4320
3644, 4273, 4274, 4322, 4321
3645, 4274, 4275, 4323, 4322
3646, 4275, 4276, 4324, 4323
3647, 4276, 4277, 4325, 4324
3648, 4277, 4278, 4326, 4325
3649, 4278, 4279, 4327, 4326
3650, 4279, 4280, 4328, 4327
3651, 4280, 4281, 4329, 4328
3652, 4281, 4282, 4330, 4329
3653, 4282, 4283, 4331, 4330
3654, 4283, 4284, 4332, 4331
3655, 4284, 4285, 4333, 4332
3656, 4285, 4286, 4334, 4333
3657, 4286, 4287, 4335, 4334
3658, 4287, 4288, 4336, 4335
3659, 4288, 4289, 4337, 4336
3660, 4289, 4290, 4338, 4337
3661, 4290, 4291, 4339, 4338
3662, 4291, 4292, 4340, 4339
3663, 4292, 4293, 4341, 4340
3664, 4293, 4294, 4342, 4341
3665, 4294, 4295, 4343, 4342
3666, 4295, 4296, 4344, 4343
3667, 4296, 4297, 4345, 4344
3668, 4297, 4298, 4346, 4345
3669, 4298, 4299, 4347, 4346
3670, 4299, 4300, 4348, 4347
3671, 4300, 4301, 4349, 4348
3672, 4301, 4302, 4350, 4349
3673, 4302, 4303, 4351, 4350
3674, 4303, 4304, 4352, 4351
3675, 4304,  336,  337, 4352
3676,  360, 4305, 4353,  359
3677, 4305, 4306, 4354, 4353
3678, 4306, 4307, 4355, 4354
3679, 4307, 4308, 4356, 4355
3680, 4308, 4309, 4357, 4356
3681, 4309, 4310, 4358, 4357
3682, 4310, 4311, 4359, 4358
3683, 4311, 4312, 4360, 4359
3684, 4312, 4313, 4361, 4360
3685, 4313, 4314, 4362, 4361
3686, 4314, 4315, 4363, 4362
3687, 4315, 4316, 4364, 4363
3688, 4316, 4317, 4365, 4364
3689, 4317, 4318, 4366, 4365
3690, 4318, 4319, 4367, 4366
3691, 4319, 4320, 4368, 4367
3692, 4320, 4321, 4369, 4368
3693, 4321, 4322, 4370, 4369
3694, 4322, 4323, 4371, 4370
3695, 4323, 4324, 4372, 4371
3696, 4324, 4325, 4373, 4372
3697, 4325, 4326, 4374, 4373
3698, 4326, 4327, 4375, 4374
3699, 4327, 4328, 4376, 4375
3700, 4328, 4329, 4377, 4376
3701, 4329, 4330, 4378, 4377
3702, 4330, 4331, 4379, 4378
3703, 4331, 4332, 4380, 4379
3704, 4332, 4333, 4381, 4380
3705, 4333, 4334, 4382, 4381
3706, 4334, 4335, 4383, 4382
3707, 4335, 4336, 4384, 4383
3708, 4336, 4337, 4385, 4384
3709, 4337, 4338, 4386, 4385
3710, 4338, 4339, 4387, 4386
3711, 4339, 4340, 4388, 4387
3712, 4340, 4341, 4389, 4388
3713, 4341, 4342, 4390, 4389
3714, 4342, 4343, 4391, 4390
3715, 4343, 4344, 4392, 4391
3716, 4344, 4345, 4393, 4392
3717, 4345, 4346, 4394, 4393
3718, 4346, 4347, 4395, 4394
3719, 4347, 4348, 4396, 4395
3720, 4348, 4349, 4397, 4396
3721, 4349, 4350, 4398, 4397
3722, 4350, 4351, 4399, 4398
3723, 4351, 4352, 4400, 4399
3724, 4352,  337,  338, 4400
3725,  359, 4353, 4401,  358
3726, 4353, 4354, 4402, 4401
3727, 4354, 4355, 4403, 4402
3728, 4355, 4356, 4404, 4403
3729, 4356, 4357, 4405, 4404
3730, 4357, 4358, 4406, 4405
3731, 4358, 4359, 4407, 4406
3732, 4359, 4360, 4408, 4407
3733, 4360, 4361, 4409, 4408
3734, 4361, 4362, 4410, 4409
3735, 4362, 4363, 4411, 4410
3736, 4363, 4364, 4412, 4411
3737, 4364, 4365, 4413, 4412
3738, 4365, 4366, 4414, 4413
3739, 4366, 4367, 4415, 4414
3740, 4367, 4368, 4416, 4415
3741, 4368, 4369, 4417, 4416
3742, 4369, 4370, 4418, 4417
3743, 4370, 4371, 4419, 4418
3744, 4371, 4372, 4420, 4419
3745, 4372, 4373, 4421, 4420
3746, 4373, 4374, 4422, 4421
3747, 4374, 4375, 4423, 4422
3748, 4375, 4376, 4424, 4423
3749, 4376, 4377, 4425, 4424
3750, 4377, 4378, 4426, 4425
3751, 4378, 4379, 4427, 4426
3752, 4379, 4380, 4428, 4427
3753, 4380, 4381, 4429, 4428
3754, 4381, 4382, 4430, 4429
3755, 4382, 4383, 4431, 4430
3756, 4383, 4384, 4432, 4431
3757, 4384, 4385, 4433, 4432
3758, 4385, 4386, 4434, 4433
3759, 4386, 4387, 4435, 4434
3760, 4387, 4388, 4436, 4435
3761, 4388, 4389, 4437, 4436
3762, 4389, 4390, 4438, 4437
3763, 4390, 4391, 4439, 4438
3764, 4391, 4392, 4440, 4439
3765, 4392, 4393, 4441, 4440
3766, 4393, 4394, 4442, 4441
3767, 4394, 4395, 4443, 4442
3768, 4395, 4396, 4444, 4443
3769, 4396, 4397, 4445, 4444
3770, 4397, 4398, 4446, 4445
3771, 4398, 4399, 4447, 4446
3772, 4399, 4400, 4448, 4447
3773, 4400,  338,  339, 4448
3774,  358, 4401, 4449,  357
3775, 4401, 4402, 4450, 4449
3776, 4402, 4403, 4451, 4450
3777, 4403, 4404, 4452, 4451
3778, 4404, 4405, 4453, 4452
3779, 4405, 4406, 4454, 4453
3780, 4406, 4407, 4455, 4454
3781, 4407, 4408, 4456, 4455
3782, 4408, 4409, 4457, 4456
3783, 4409, 4410, 4458, 4457
3784, 4410, 4411, 4459, 4458
3785, 4411, 4412, 4460, 4459
3786, 4412, 4413, 4461, 4460
3787, 4413, 4414, 4462, 4461
3788, 4414, 4415, 4463, 4462
3789, 4415, 4416, 4464, 4463
3790, 4416, 4417, 4465, 4464
3791, 4417, 4418, 4466, 4465
3792, 4418, 4419, 4467, 4466
3793, 4419, 4420, 4468, 4467
3794, 4420, 4421, 4469, 4468
3795, 4421, 4422, 4470, 4469
3796, 4422, 4423, 4471, 4470
3797, 4423, 4424, 4472, 4471
3798, 4424, 4425, 4473, 4472
3799, 4425, 4426, 4474, 4473
3800, 4426, 4427, 4475, 4474
3801, 4427, 4428, 4476, 4475
3802, 4428, 4429, 4477, 4476
3803, 4429, 4430, 4478, 4477
3804, 4430, 4431, 4479, 4478
3805, 4431, 4432, 4480, 4479
3806, 4432, 4433, 4481, 4480
3807, 4433, 4434, 4482, 4481
3808, 4434, 4435, 4483, 4482
3809, 4435, 4436, 4484, 4483
3810, 4436, 4437, 4485, 4484
3811, 4437, 4438, 4486, 4485
3812, 4438, 4439, 4487, 4486
3813, 4439, 4440, 4488, 4487
3814, 4440, 4441, 4489, 4488
3815, 4441, 4442, 4490, 4489
3816, 4442, 4443, 4491, 4490
3817, 4443, 4444, 4492, 4491
3818, 4444, 4445, 4493, 4492
3819, 4445, 4446, 4494, 4493
3820, 4446, 4447, 4495, 4494
3821, 4447, 4448, 4496, 4495
3822, 4448,  339,  340, 4496
3823,  357, 4449, 4497,  356
3824, 4449, 4450, 4498, 4497
3825, 4450, 4451, 4499, 4498
3826, 4451, 4452, 4500, 4499
3827, 4452, 4453, 4501, 4500
3828, 4453, 4454, 4502, 4501
3829, 4454, 4455, 4503, 4502
3830, 4455, 4456, 4504, 4503
3831, 4456, 4457, 4505, 4504
3832, 4457, 4458, 4506, 4505
3833, 4458, 4459, 4507, 4506
3834, 4459, 4460, 4508, 4507
3835, 4460, 4461, 4509, 4508
3836, 4461, 4462, 4510, 4509
3837, 4462, 4463, 4511, 4510
3838, 4463, 4464, 4512, 4511
3839, 4464, 4465, 4513, 4512
3840, 4465, 4466, 4514, 4513
3841, 4466, 4467, 4515, 4514
3842, 4467, 4468, 4516, 4515
3843, 4468, 4469, 4517, 4516
3844, 4469, 4470, 4518, 4517
3845, 4470, 4471, 4519, 4518
3846, 4471, 4472, 4520, 4519
3847, 4472, 4473, 4521, 4520
3848, 4473, 4474, 4522, 4521
3849, 4474, 4475, 4523, 4522
3850, 4475, 4476, 4524, 4523
3851, 4476, 4477, 4525, 4524
3852, 4477, 4478, 4526, 4525
3853, 4478, 4479, 4527, 4526
3854, 4479, 4480, 4528, 4527
3855, 4480, 4481, 4529, 4528
3856, 4481, 4482, 4530, 4529
3857, 4482, 4483, 4531, 4530
3858, 4483, 4484, 4532, 4531
3859, 4484, 4485, 4533, 4532
3860, 4485, 4486, 4534, 4533
3861, 4486, 4487, 4535, 4534
3862, 4487, 4488, 4536, 4535
3863, 4488, 4489, 4537, 4536
3864, 4489, 4490, 4538, 4537
3865, 4490, 4491, 4539, 4538
3866, 4491, 4492, 4540, 4539
3867, 4492, 4493, 4541, 4540
3868, 4493, 4494, 4542, 4541
3869, 4494, 4495, 4543, 4542
3870, 4495, 4496, 4544, 4543
3871, 4496,  340,  341, 4544
3872,  356, 4497, 4545,  355
3873, 4497, 4498, 4546, 4545
3874, 4498, 4499, 4547, 4546
3875, 4499, 4500, 4548, 4547
3876, 4500, 4501, 4549, 4548
3877, 4501, 4502, 4550, 4549
3878, 4502, 4503, 4551, 4550
3879, 4503, 4504, 4552, 4551
3880, 4504, 4505, 4553, 4552
3881, 4505, 4506, 4554, 4553
3882, 4506, 4507, 4555, 4554
3883, 4507, 4508, 4556, 4555
3884, 4508, 4509, 4557, 4556
3885, 4509, 4510, 4558, 4557
3886, 4510, 4511, 4559, 4558
3887, 4511, 4512, 4560, 4559
3888, 4512, 4513, 4561, 4560
3889, 4513, 4514, 4562, 4561
3890, 4514, 4515, 4563, 4562
3891, 4515, 4516, 4564, 4563
3892, 4516, 4517, 4565, 4564
3893, 4517, 4518, 4566, 4565
3894, 4518, 4519, 4567, 4566
3895, 4519, 4520, 4568, 4567
3896, 4520, 4521, 4569, 4568
3897, 4521, 4522, 4570, 4569
3898, 4522, 4523, 4571, 4570
3899, 4523, 4524, 4572, 4571
3900, 4524, 4525, 4573, 4572
3901, 4525, 4526, 4574, 4573
3902, 4526, 4527, 4575, 4574
3903, 4527, 4528, 4576, 4575
3904, 4528, 4529, 4577, 4576
3905, 4529, 4530, 4578, 4577
3906, 4530, 4531, 4579, 4578
3907, 4531, 4532, 4580, 4579
3908, 4532, 4533, 4581, 4580
3909, 4533, 4534, 4582, 4581
3910, 4534, 4535, 4583, 4582
3911, 4535, 4536, 4584, 4583
3912, 4536, 4537, 4585, 4584
3913, 4537, 4538, 4586, 4585
3914, 4538, 4539, 4587, 4586
3915, 4539, 4540, 4588, 4587
3916, 4540, 4541, 4589, 4588
3917, 4541, 4542, 4590, 4589
3918, 4542, 4543, 4591, 4590
3919, 4543, 4544, 4592, 4591
3920, 4544,  341,  342, 4592
3921,  355, 4545, 4593,  354
3922, 4545, 4546, 4594, 4593
3923, 4546, 4547, 4595, 4594
3924, 4547, 4548, 4596, 4595
3925, 4548, 4549, 4597, 4596
3926, 4549, 4550, 4598, 4597
3927, 4550, 4551, 4599, 4598
3928, 4551, 4552, 4600, 4599
3929, 4552, 4553, 4601, 4600
3930, 4553, 4554, 4602, 4601
3931, 4554, 4555, 4603, 4602
3932, 4555, 4556, 4604, 4603
3933, 4556, 4557, 4605, 4604
3934, 4557, 4558, 4606, 4605
3935, 4558, 4559, 4607, 4606
3936, 4559, 4560, 4608, 4607
3937, 4560, 4561, 4609, 4608
3938, 4561, 4562, 4610, 4609
3939, 4562, 4563, 4611, 4610
3940, 4563, 4564, 4612, 4611
3941, 4564, 4565, 4613, 4612
3942, 4565, 4566, 4614, 4613
3943, 4566, 4567, 4615, 4614
3944, 4567, 4568, 4616, 4615
3945, 4568, 4569, 4617, 4616
3946, 4569, 4570, 4618, 4617
3947, 4570, 4571, 4619, 4618
3948, 4571, 4572, 4620, 4619
3949, 4572, 4573, 4621, 4620
3950, 4573, 4574, 4622, 4621
3951, 4574, 4575, 4623, 4622
3952, 4575, 4576, 4624, 4623
3953, 4576, 4577, 4625, 4624
3954, 4577, 4578, 4626, 4625
3955, 4578, 4579, 4627, 4626
3956, 4579, 4580, 4628, 4627
3957, 4580, 4581, 4629, 4628
3958, 4581, 4582, 4630, 4629
3959, 4582, 4583, 4631, 4630
3960, 4583, 4584, 4632, 4631
3961, 4584, 4585, 4633, 4632
3962, 4585, 4586, 4634, 4633
3963, 4586, 4587, 4635, 4634
3964, 4587, 4588, 4636, 4635
3965, 4588, 4589, 4637, 4636
3966, 4589, 4590, 4638, 4637
3967, 4590, 4591, 4639, 4638
3968, 4591, 4592, 4640, 4639
3969, 4592,  342,  343, 4640
3970,  354, 4593, 4641,  353
3971, 4593, 4594, 4642, 4641
3972, 4594, 4595, 4643, 4642
3973, 4595, 4596, 4644, 4643
3974, 4596, 4597, 4645, 4644
3975, 4597, 4598, 4646, 4645
3976, 4598, 4599, 4647, 4646
3977, 4599, 4600, 4648, 4647
3978, 4600, 4601, 4649, 4648
3979, 4601, 4602, 4650, 4649
3980, 4602, 4603, 4651, 4650
3981, 4603, 4604, 4652, 4651
3982, 4604, 4605, 4653, 4652
3983, 4605, 4606, 4654, 4653
3984, 4606, 4607, 4655, 4654
3985, 4607, 4608, 4656, 4655
3986, 4608, 4609, 4657, 4656
3987, 4609, 4610, 4658, 4657
3988, 4610, 4611, 4659, 4658
3989, 4611, 4612, 4660, 4659
3990, 4612, 4613, 4661, 4660
3991, 4613, 4614, 4662, 4661
3992, 4614, 4615, 4663, 4662
3993, 4615, 4616, 4664, 4663
3994, 4616, 4617, 4665, 4664
3995, 4617, 4618, 4666, 4665
3996, 4618, 4619, 4667, 4666
3997, 4619, 4620, 4668, 4667
3998, 4620, 4621, 4669, 4668
3999, 4621, 4622, 4670, 4669
4000, 4622, 4623, 4671, 4670
4001, 4623, 4624, 4672, 4671
4002, 4624, 4625, 4673, 4672
4003, 4625, 4626, 4674, 4673
4004, 4626, 4627, 4675, 4674
4005, 4627, 4628, 4676, 4675
4006, 4628, 4629, 4677, 4676
4007, 4629, 4630, 4678, 4677
4008, 4630, 4631, 4679, 4678
4009, 4631, 4632, 4680, 4679
4010, 4632, 4633, 4681, 4680
4011, 4633, 4634, 4682, 4681
4012, 4634, 4635, 4683, 4682
4013, 4635, 4636, 4684, 4683
4014, 4636, 4637, 4685, 4684
4015, 4637, 4638, 4686, 4685
4016, 4638, 4639, 4687, 4686
4017, 4639, 4640, 4688, 4687
4018, 4640,  343,  344, 4688
4019,  353, 4641, 4689,  352
4020, 4641, 4642, 4690, 4689
4021, 4642, 4643, 4691, 4690
4022, 4643, 4644, 4692, 4691
4023, 4644, 4645, 4693, 4692
4024, 4645, 4646, 4694, 4693
4025, 4646, 4647, 4695, 4694
4026, 4647, 4648, 4696, 4695
4027, 4648, 4649, 4697, 4696
4028, 4649, 4650, 4698, 4697
4029, 4650, 4651, 4699, 4698
4030, 4651, 4652, 4700, 4699
4031, 4652, 4653, 4701, 4700
4032, 4653, 4654, 4702, 4701
4033, 4654, 4655, 4703, 4702
4034, 4655, 4656, 4704, 4703
4035, 4656, 4657, 4705, 4704
4036, 4657, 4658, 4706, 4705
4037, 4658, 4659, 4707, 4706
4038, 4659, 4660, 4708, 4707
4039, 4660, 4661, 4709, 4708
4040, 4661, 4662, 4710, 4709
4041, 4662, 4663, 4711, 4710
4042, 4663, 4664, 4712, 4711
4043, 4664, 4665, 4713, 4712
4044, 4665, 4666, 4714, 4713
4045, 4666, 4667, 4715, 4714
4046, 4667, 4668, 4716, 4715
4047, 4668, 4669, 4717, 4716
4048, 4669, 4670, 4718, 4717
4049, 4670, 4671, 4719, 4718
4050, 4671, 4672, 4720, 4719
4051, 4672, 4673, 4721, 4720
4052, 4673, 4674, 4722, 4721
4053, 4674, 4675, 4723, 4722
4054, 4675, 4676, 4724, 4723
4055, 4676, 4677, 4725, 4724
4056, 4677, 4678, 4726, 4725
4057, 4678, 4679, 4727, 4726
4058, 4679, 4680, 4728, 4727
4059, 4680, 4681, 4729, 4728
4060, 4681, 4682, 4730, 4729
4061, 4682, 4683, 4731, 4730
4062, 4683, 4684, 4732, 4731
4063, 4684, 4685, 4733, 4732
4064, 4685, 4686, 4734, 4733
4065, 4686, 4687, 4735, 4734
4066, 4687, 4688, 4736, 4735
4067, 4688,  344,  345, 4736
4068,  352, 4689, 4737,  351
4069, 4689, 4690, 4738, 4737
4070, 4690, 4691, 4739, 4738
4071, 4691, 4692, 4740, 4739
4072, 4692, 4693, 4741, 4740
4073, 4693, 4694, 4742, 4741
4074, 4694, 4695, 4743, 4742
4075, 4695, 4696, 4744, 4743
4076, 4696, 4697, 4745, 4744
4077, 4697, 4698, 4746, 4745
4078, 4698, 4699, 4747, 4746
4079, 4699, 4700, 4748, 4747
4080, 4700, 4701, 4749, 4748
4081, 4701, 4702, 4750, 4749
4082, 4702, 4703, 4751, 4750
4083, 4703, 4704, 4752, 4751
4084, 4704, 4705, 4753, 4752
4085, 4705, 4706, 4754, 4753
4086, 4706, 4707, 4755, 4754
4087, 4707, 4708, 4756, 4755
4088, 4708, 4709, 4757, 4756
4089, 4709, 4710, 4758, 4757
4090, 4710, 4711, 4759, 4758
4091, 4711, 4712, 4760, 4759
4092, 4712, 4713, 4761, 4760
4093, 4713, 4714, 4762, 4761
4094, 4714, 4715, 4763, 4762
4095, 4715, 4716, 4764, 4763
4096, 4716, 4717, 4765, 4764
4097, 4717, 4718, 4766, 4765
4098, 4718, 4719, 4767, 4766
4099, 4719, 4720, 4768, 4767
4100, 4720, 4721, 4769, 4768
4101, 4721, 4722, 4770, 4769
4102, 4722, 4723, 4771, 4770
4103, 4723, 4724, 4772, 4771
4104, 4724, 4725, 4773, 4772
4105, 4725, 4726, 4774, 4773
4106, 4726, 4727, 4775, 4774
4107, 4727, 4728, 4776, 4775
4108, 4728, 4729, 4777, 4776
4109, 4729, 4730, 4778, 4777
4110, 4730, 4731, 4779, 4778
4111, 4731, 4732, 4780, 4779
4112, 4732, 4733, 4781, 4780
4113, 4733, 4734, 4782, 4781
4114, 4734, 4735, 4783, 4782
4115, 4735, 4736, 4784, 4783
4116, 4736,  345,  346, 4784
4117,  351, 4737, 4785,  350
4118, 4737, 4738, 4786, 4785
4119, 4738, 4739, 4787, 4786
4120, 4739, 4740, 4788, 4787
4121, 4740, 4741, 4789, 4788
4122, 4741, 4742, 4790, 4789
4123, 4742, 4743, 4791, 4790
4124, 4743, 4744, 4792, 4791
4125, 4744, 4745, 4793, 4792
4126, 4745, 4746, 4794, 4793
4127, 4746, 4747, 4795, 4794
4128, 4747, 4748, 4796, 4795
4129, 4748, 4749, 4797, 4796
4130, 4749, 4750, 4798, 4797
4131, 4750, 4751, 4799, 4798
4132, 4751, 4752, 4800, 4799
4133, 4752, 4753, 4801, 4800
4134, 4753, 4754, 4802, 4801
4135, 4754, 4755, 4803, 4802
4136, 4755, 4756, 4804, 4803
4137, 4756, 4757, 4805, 4804
4138, 4757, 4758, 4806, 4805
4139, 4758, 4759, 4807, 4806
4140, 4759, 4760, 4808, 4807
4141, 4760, 4761, 4809, 4808
4142, 4761, 4762, 4810, 4809
4143, 4762, 4763, 4811, 4810
4144, 4763, 4764, 4812, 4811
4145, 4764, 4765, 4813, 4812
4146, 4765, 4766, 4814, 4813
4147, 4766, 4767, 4815, 4814
4148, 4767, 4768, 4816, 4815
4149, 4768, 4769, 4817, 4816
4150, 4769, 4770, 4818, 4817
4151, 4770, 4771, 4819, 4818
4152, 4771, 4772, 4820, 4819
4153, 4772, 4773, 4821, 4820
4154, 4773, 4774, 4822, 4821
4155, 4774, 4775, 4823, 4822
4156, 4775, 4776, 4824, 4823
4157, 4776, 4777, 4825, 4824
4158, 4777, 4778, 4826, 4825
4159, 4778, 4779, 4827, 4826
4160, 4779, 4780, 4828, 4827
4161, 4780, 4781, 4829, 4828
4162, 4781, 4782, 4830, 4829
4163, 4782, 4783, 4831, 4830
4164, 4783, 4784, 4832, 4831
4165, 4784,  346,  347, 4832
4166,  350, 4785, 4833,  349
4167, 4785, 4786, 4834, 4833
4168, 4786, 4787, 4835, 4834
4169, 4787, 4788, 4836, 4835
4170, 4788, 4789, 4837, 4836
4171, 4789, 4790, 4838, 4837
4172, 4790, 4791, 4839, 4838
4173, 4791, 4792, 4840, 4839
4174, 4792, 4793, 4841, 4840
4175, 4793, 4794, 4842, 4841
4176, 4794, 4795, 4843, 4842
4177, 4795, 4796, 4844, 4843
4178, 4796, 4797, 4845, 4844
4179, 4797, 4798, 4846, 4845
4180, 4798, 4799, 4847, 4846
4181, 4799, 4800, 4848, 4847
4182, 4800, 4801, 4849, 4848
4183, 4801, 4802, 4850, 4849
4184, 4802, 4803, 4851, 4850
4185, 4803, 4804, 4852, 4851
4186, 4804, 4805, 4853, 4852
4187, 4805, 4806, 4854, 4853
4188, 4806, 4807, 4855, 4854
4189, 4807, 4808, 4856, 4855
4190, 4808, 4809, 4857, 4856
4191, 4809, 4810, 4858, 4857
4192, 4810, 4811, 4859, 4858
4193, 4811, 4812, 4860, 4859
4194, 4812, 4813, 4861, 4860
4195, 4813, 4814, 4862, 4861
4196, 4814, 4815, 4863, 4862
4197, 4815, 4816, 4864, 4863
4198, 4816, 4817, 4865, 4864
4199, 4817, 4818, 4866, 4865
4200, 4818, 4819, 4867, 4866
4201, 4819, 4820, 4868, 4867
4202, 4820, 4821, 4869, 4868
4203, 4821, 4822, 4870, 4869
4204, 4822, 4823, 4871, 4870
4205, 4823, 4824, 4872, 4871
4206, 4824, 4825, 4873, 4872
4207, 4825, 4826, 4874, 4873
4208, 4826, 4827, 4875, 4874
4209, 4827, 4828, 4876, 4875
4210, 4828, 4829, 4877, 4876
4211, 4829, 4830, 4878, 4877
4212, 4830, 4831, 4879, 4878
4213, 4831, 4832, 4880, 4879
4214, 4832,  347,  348, 4880
4215,  349, 4833,   93,    3
4216, 4833, 4834,   94,   93
4217, 4834, 4835,   95,   94
4218, 4835, 4836,   96,   95
4219, 4836, 4837,   97,   96
4220, 4837, 4838,   98,   97
4221, 4838, 4839,   99,   98
4222, 4839, 4840,  100,   99
4223, 4840, 4841,  101,  100
4224, 4841, 4842,  102,  101
4225, 4842, 4843,  103,  102
4226, 4843, 4844,  104,  103
4227, 4844, 4845,  105,  104
4228, 4845, 4846,  106,  105
4229, 4846, 4847,  107,  106
4230, 4847, 4848,  108,  107
4231, 4848, 4849,  109,  108
4232, 4849, 4850,  110,  109
4233, 4850, 4851,  111,  110
4234, 4851, 4852,  112,  111
4235, 4852, 4853,  113,  112
4236, 4853, 4854,  114,  113
4237, 4854, 4855,  115,  114
4238, 4855, 4856,  116,  115
4239, 4856, 4857,  117,  116
4240, 4857, 4858,  118,  117
4241, 4858, 4859,  119,  118
4242, 4859, 4860,  120,  119
4243, 4860, 4861,  121,  120
4244, 4861, 4862,  122,  121
4245, 4862, 4863,  123,  122
4246, 4863, 4864,  124,  123
4247, 4864, 4865,  125,  124
4248, 4865, 4866,  126,  125
4249, 4866, 4867,  127,  126
4250, 4867, 4868,  128,  127
4251, 4868, 4869,  129,  128
4252, 4869, 4870,  130,  129
4253, 4870, 4871,  131,  130
4254, 4871, 4872,  132,  131
4255, 4872, 4873,  133,  132
4256, 4873, 4874,  134,  133
4257, 4874, 4875,  135,  134
4258, 4875, 4876,  136,  135
4259, 4876, 4877,  137,  136
4260, 4877, 4878,  138,  137
4261, 4878, 4879,  139,  138
4262, 4879, 4880,  140,  139
4263, 4880,  348,    4,  140
4264,    9,  377, 4881,  480
4265,  377,  378, 4882, 4881
4266,  378,  379, 4883, 4882
4267,  379,  380, 4884, 4883
4268,  380,  381, 4885, 4884
4269,  381,  382, 4886, 4885
4270,  382,  383, 4887, 4886
4271,  383,  384, 4888, 4887
4272,  384,  385, 4889, 4888
4273,  385,  386, 4890, 4889
4274,  386,  387, 4891, 4890
4275,  387,  388, 4892, 4891
4276,  388,  389, 4893, 4892
4277,  389,  390, 4894, 4893
4278,  390,  391, 4895, 4894
4279,  391,  392, 4896, 4895
4280,  392,  393, 4897, 4896
4281,  393,  394, 4898, 4897
4282,  394,  395, 4899, 4898
4283,  395,  396, 4900, 4899
4284,  396,  397, 4901, 4900
4285,  397,  398, 4902, 4901
4286,  398,  399, 4903, 4902
4287,  399,  400, 4904, 4903
4288,  400,  401, 4905, 4904
4289,  401,  402, 4906, 4905
4290,  402,  403, 4907, 4906
4291,  403,  404, 4908, 4907
4292,  404,  405, 4909, 4908
4293,  405,  406, 4910, 4909
4294,  406,  407, 4911, 4910
4295,  407,  408, 4912, 4911
4296,  408,  409, 4913, 4912
4297,  409,  410, 4914, 4913
4298,  410,  411, 4915, 4914
4299,  411,  412, 4916, 4915
4300,  412,  413, 4917, 4916
4301,  413,  414, 4918, 4917
4302,  414,  415, 4919, 4918
4303,  415,  416, 4920, 4919
4304,  416,  417, 4921, 4920
4305,  417,  418, 4922, 4921
4306,  418,  419, 4923, 4922
4307,  419,  420, 4924, 4923
4308,  420,  421, 4925, 4924
4309,  421,  422, 4926, 4925
4310,  422,  423, 4927, 4926
4311,  423,  424, 4928, 4927
4312,  424,   10,  425, 4928
4313,  480, 4881, 4929,  479
4314, 4881, 4882, 4930, 4929
4315, 4882, 4883, 4931, 4930
4316, 4883, 4884, 4932, 4931
4317, 4884, 4885, 4933, 4932
4318, 4885, 4886, 4934, 4933
4319, 4886, 4887, 4935, 4934
4320, 4887, 4888, 4936, 4935
4321, 4888, 4889, 4937, 4936
4322, 4889, 4890, 4938, 4937
4323, 4890, 4891, 4939, 4938
4324, 4891, 4892, 4940, 4939
4325, 4892, 4893, 4941, 4940
4326, 4893, 4894, 4942, 4941
4327, 4894, 4895, 4943, 4942
4328, 4895, 4896, 4944, 4943
4329, 4896, 4897, 4945, 4944
4330, 4897, 4898, 4946, 4945
4331, 4898, 4899, 4947, 4946
4332, 4899, 4900, 4948, 4947
4333, 4900, 4901, 4949, 4948
4334, 4901, 4902, 4950, 4949
4335, 4902, 4903, 4951, 4950
4336, 4903, 4904, 4952, 4951
4337, 4904, 4905, 4953, 4952
4338, 4905, 4906, 4954, 4953
4339, 4906, 4907, 4955, 4954
4340, 4907, 4908, 4956, 4955
4341, 4908, 4909, 4957, 4956
4342, 4909, 4910, 4958, 4957
4343, 4910, 4911, 4959, 4958
4344, 4911, 4912, 4960, 4959
4345, 4912, 4913, 4961, 4960
4346, 4913, 4914, 4962, 4961
4347, 4914, 4915, 4963, 4962
4348, 4915, 4916, 4964, 4963
4349, 4916, 4917, 4965, 4964
4350, 4917, 4918, 4966, 4965
4351, 4918, 4919, 4967, 4966
4352, 4919, 4920, 4968, 4967
4353, 4920, 4921, 4969, 4968
4354, 4921, 4922, 4970, 4969
4355, 4922, 4923, 4971, 4970
4356, 4923, 4924, 4972, 4971
4357, 4924, 4925, 4973, 4972
4358, 4925, 4926, 4974, 4973
4359, 4926, 4927, 4975, 4974
4360, 4927, 4928, 4976, 4975
4361, 4928,  425,  426, 4976
4362,  479, 4929, 4977,  478
4363, 4929, 4930, 4978, 4977
4364, 4930, 4931, 4979, 4978
4365, 4931, 4932, 4980, 4979
4366, 4932, 4933, 4981, 4980
4367, 4933, 4934, 4982, 4981
4368, 4934, 4935, 4983, 4982
4369, 4935, 4936, 4984, 4983
4370, 4936, 4937, 4985, 4984
4371, 4937, 4938, 4986, 4985
4372, 4938, 4939, 4987, 4986
4373, 4939, 4940, 4988, 4987
4374, 4940, 4941, 4989, 4988
4375, 4941, 4942, 4990, 4989
4376, 4942, 4943, 4991, 4990
4377, 4943, 4944, 4992, 4991
4378, 4944, 4945, 4993, 4992
4379, 4945, 4946, 4994, 4993
4380, 4946, 4947, 4995, 4994
4381, 4947, 4948, 4996, 4995
4382, 4948, 4949, 4997, 4996
4383, 4949, 4950, 4998, 4997
4384, 4950, 4951, 4999, 4998
4385, 4951, 4952, 5000, 4999
4386, 4952, 4953, 5001, 5000
4387, 4953, 4954, 5002, 5001
4388, 4954, 4955, 5003, 5002
4389, 4955, 4956, 5004, 5003
4390, 4956, 4957, 5005, 5004
4391, 4957, 4958, 5006, 5005
4392, 4958, 4959, 5007, 5006
4393, 4959, 4960, 5008, 5007
4394, 4960, 4961, 5009, 5008
4395, 4961, 4962, 5010, 5009
4396, 4962, 4963, 5011, 5010
4397, 4963, 4964, 5012, 5011
4398, 4964, 4965, 5013, 5012
4399, 4965, 4966, 5014, 5013
4400, 4966, 4967, 5015, 5014
4401, 4967, 4968, 5016, 5015
4402, 4968, 4969, 5017, 5016
4403, 4969, 4970, 5018, 5017
4404, 4970, 4971, 5019, 5018
4405, 4971, 4972, 5020, 5019
4406, 4972, 4973, 5021, 5020
4407, 4973, 4974, 5022, 5021
4408, 4974, 4975, 5023, 5022
4409, 4975, 4976, 5024, 5023
4410, 4976,  426,  427, 5024
4411,  478, 4977, 5025,  477
4412, 4977, 4978, 5026, 5025
4413, 4978, 4979, 5027, 5026
4414, 4979, 4980, 5028, 5027
4415, 4980, 4981, 5029, 5028
4416, 4981, 4982, 5030, 5029
4417, 4982, 4983, 5031, 5030
4418, 4983, 4984, 5032, 5031
4419, 4984, 4985, 5033, 5032
4420, 4985, 4986, 5034, 5033
4421, 4986, 4987, 5035, 5034
4422, 4987, 4988, 5036, 5035
4423, 4988, 4989, 5037, 5036
4424, 4989, 4990, 5038, 5037
4425, 4990, 4991, 5039, 5038
4426, 4991, 4992, 5040, 5039
4427, 4992, 4993, 5041, 5040
4428, 4993, 4994, 5042, 5041
4429, 4994, 4995, 5043, 5042
4430, 4995, 4996, 5044, 5043
4431, 4996, 4997, 5045, 5044
4432, 4997, 4998, 5046, 5045
4433, 4998, 4999, 5047, 5046
4434, 4999, 5000, 5048, 5047
4435, 5000, 5001, 5049, 5048
4436, 5001, 5002, 5050, 5049
4437, 5002, 5003, 5051, 5050
4438, 5003, 5004, 5052, 5051
4439, 5004, 5005, 5053, 5052
4440, 5005, 5006, 5054, 5053
4441, 5006, 5007, 5055, 5054
4442, 5007, 5008, 5056, 5055
4443, 5008, 5009, 5057, 5056
4444, 5009, 5010, 5058, 5057
4445, 5010, 5011, 5059, 5058
4446, 5011, 5012, 5060, 5059
4447, 5012, 5013, 5061, 5060
4448, 5013, 5014, 5062, 5061
4449, 5014, 5015, 5063, 5062
4450, 5015, 5016, 5064, 5063
4451, 5016, 5017, 5065, 5064
4452, 5017, 5018, 5066, 5065
4453, 5018, 5019, 5067, 5066
4454, 5019, 5020, 5068, 5067
4455, 5020, 5021, 5069, 5068
4456, 5021, 5022, 5070, 5069
4457, 5022, 5023, 5071, 5070
4458, 5023, 5024, 5072, 5071
4459, 5024,  427,  428, 5072
4460,  477, 5025, 5073,  476
4461, 5025, 5026, 5074, 5073
4462, 5026, 5027, 5075, 5074
4463, 5027, 5028, 5076, 5075
4464, 5028, 5029, 5077, 5076
4465, 5029, 5030, 5078, 5077
4466, 5030, 5031, 5079, 5078
4467, 5031, 5032, 5080, 5079
4468, 5032, 5033, 5081, 5080
4469, 5033, 5034, 5082, 5081
4470, 5034, 5035, 5083, 5082
4471, 5035, 5036, 5084, 5083
4472, 5036, 5037, 5085, 5084
4473, 5037, 5038, 5086, 5085
4474, 5038, 5039, 5087, 5086
4475, 5039, 5040, 5088, 5087
4476, 5040, 5041, 5089, 5088
4477, 5041, 5042, 5090, 5089
4478, 5042, 5043, 5091, 5090
4479, 5043, 5044, 5092, 5091
4480, 5044, 5045, 5093, 5092
4481, 5045, 5046, 5094, 5093
4482, 5046, 5047, 5095, 5094
4483, 5047, 5048, 5096, 5095
4484, 5048, 5049, 5097, 5096
4485, 5049, 5050, 5098, 5097
4486, 5050, 5051, 5099, 5098
4487, 5051, 5052, 5100, 5099
4488, 5052, 5053, 5101, 5100
4489, 5053, 5054, 5102, 5101
4490, 5054, 5055, 5103, 5102
4491, 5055, 5056, 5104, 5103
4492, 5056, 5057, 5105, 5104
4493, 5057, 5058, 5106, 5105
4494, 5058, 5059, 5107, 5106
4495, 5059, 5060, 5108, 5107
4496, 5060, 5061, 5109, 5108
4497, 5061, 5062, 5110, 5109
4498, 5062, 5063, 5111, 5110
4499, 5063, 5064, 5112, 5111
4500, 5064, 5065, 5113, 5112
4501, 5065, 5066, 5114, 5113
4502, 5066, 5067, 5115, 5114
4503, 5067, 5068, 5116, 5115
4504, 5068, 5069, 5117, 5116
4505, 5069, 5070, 5118, 5117
4506, 5070, 5071, 5119, 5118
4507, 5071, 5072, 5120, 5119
4508, 5072,  428,  429, 5120
4509,  476, 5073, 5121,  475
4510, 5073, 5074, 5122, 5121
4511, 5074, 5075, 5123, 5122
4512, 5075, 5076, 5124, 5123
4513, 5076, 5077, 5125, 5124
4514, 5077, 5078, 5126, 5125
4515, 5078, 5079, 5127, 5126
4516, 5079, 5080, 5128, 5127
4517, 5080, 5081, 5129, 5128
4518, 5081, 5082, 5130, 5129
4519, 5082, 5083, 5131, 5130
4520, 5083, 5084, 5132, 5131
4521, 5084, 5085, 5133, 5132
4522, 5085, 5086, 5134, 5133
4523, 5086, 5087, 5135, 5134
4524, 5087, 5088, 5136, 5135
4525, 5088, 5089, 5137, 5136
4526, 5089, 5090, 5138, 5137
4527, 5090, 5091, 5139, 5138
4528, 5091, 5092, 5140, 5139
4529, 5092, 5093, 5141, 5140
4530, 5093, 5094, 5142, 5141
4531, 5094, 5095, 5143, 5142
4532, 5095, 5096, 5144, 5143
4533, 5096, 5097, 5145, 5144
4534, 5097, 5098, 5146, 5145
4535, 5098, 5099, 5147, 5146
4536, 5099, 5100, 5148, 5147
4537, 5100, 5101, 5149, 5148
4538, 5101, 5102, 5150, 5149
4539, 5102, 5103, 5151, 5150
4540, 5103, 5104, 5152, 5151
4541, 5104, 5105, 5153, 5152
4542, 5105, 5106, 5154, 5153
4543, 5106, 5107, 5155, 5154
4544, 5107, 5108, 5156, 5155
4545, 5108, 5109, 5157, 5156
4546, 5109, 5110, 5158, 5157
4547, 5110, 5111, 5159, 5158
4548, 5111, 5112, 5160, 5159
4549, 5112, 5113, 5161, 5160
4550, 5113, 5114, 5162, 5161
4551, 5114, 5115, 5163, 5162
4552, 5115, 5116, 5164, 5163
4553, 5116, 5117, 5165, 5164
4554, 5117, 5118, 5166, 5165
4555, 5118, 5119, 5167, 5166
4556, 5119, 5120, 5168, 5167
4557, 5120,  429,  430, 5168
4558,  475, 5121, 5169,  474
4559, 5121, 5122, 5170, 5169
4560, 5122, 5123, 5171, 5170
4561, 5123, 5124, 5172, 5171
4562, 5124, 5125, 5173, 5172
4563, 5125, 5126, 5174, 5173
4564, 5126, 5127, 5175, 5174
4565, 5127, 5128, 5176, 5175
4566, 5128, 5129, 5177, 5176
4567, 5129, 5130, 5178, 5177
4568, 5130, 5131, 5179, 5178
4569, 5131, 5132, 5180, 5179
4570, 5132, 5133, 5181, 5180
4571, 5133, 5134, 5182, 5181
4572, 5134, 5135, 5183, 5182
4573, 5135, 5136, 5184, 5183
4574, 5136, 5137, 5185, 5184
4575, 5137, 5138, 5186, 5185
4576, 5138, 5139, 5187, 5186
4577, 5139, 5140, 5188, 5187
4578, 5140, 5141, 5189, 5188
4579, 5141, 5142, 5190, 5189
4580, 5142, 5143, 5191, 5190
4581, 5143, 5144, 5192, 5191
4582, 5144, 5145, 5193, 5192
4583, 5145, 5146, 5194, 5193
4584, 5146, 5147, 5195, 5194
4585, 5147, 5148, 5196, 5195
4586, 5148, 5149, 5197, 5196
4587, 5149, 5150, 5198, 5197
4588, 5150, 5151, 5199, 5198
4589, 5151, 5152, 5200, 5199
4590, 5152, 5153, 5201, 5200
4591, 5153, 5154, 5202, 5201
4592, 5154, 5155, 5203, 5202
4593, 5155, 5156, 5204, 5203
4594, 5156, 5157, 5205, 5204
4595, 5157, 5158, 5206, 5205
4596, 5158, 5159, 5207, 5206
4597, 5159, 5160, 5208, 5207
4598, 5160, 5161, 5209, 5208
4599, 5161, 5162, 5210, 5209
4600, 5162, 5163, 5211, 5210
4601, 5163, 5164, 5212, 5211
4602, 5164, 5165, 5213, 5212
4603, 5165, 5166, 5214, 5213
4604, 5166, 5167, 5215, 5214
4605, 5167, 5168, 5216, 5215
4606, 5168,  430,  431, 5216
4607,  474, 5169, 5217,  473
4608, 5169, 5170, 5218, 5217
4609, 5170, 5171, 5219, 5218
4610, 5171, 5172, 5220, 5219
4611, 5172, 5173, 5221, 5220
4612, 5173, 5174, 5222, 5221
4613, 5174, 5175, 5223, 5222
4614, 5175, 5176, 5224, 5223
4615, 5176, 5177, 5225, 5224
4616, 5177, 5178, 5226, 5225
4617, 5178, 5179, 5227, 5226
4618, 5179, 5180, 5228, 5227
4619, 5180, 5181, 5229, 5228
4620, 5181, 5182, 5230, 5229
4621, 5182, 5183, 5231, 5230
4622, 5183, 5184, 5232, 5231
4623, 5184, 5185, 5233, 5232
4624, 5185, 5186, 5234, 5233
4625, 5186, 5187, 5235, 5234
4626, 5187, 5188, 5236, 5235
4627, 5188, 5189, 5237, 5236
4628, 5189, 5190, 5238, 5237
4629, 5190, 5191, 5239, 5238
4630, 5191, 5192, 5240, 5239
4631, 5192, 5193, 5241, 5240
4632, 5193, 5194, 5242, 5241
4633, 5194, 5195, 5243, 5242
4634, 5195, 5196, 5244, 5243
4635, 5196, 5197, 5245, 5244
4636, 5197, 5198, 5246, 5245
4637, 5198, 5199, 5247, 5246
4638, 5199, 5200, 5248, 5247
4639, 5200, 5201, 5249, 5248
4640, 5201, 5202, 5250, 5249
4641, 5202, 5203, 5251, 5250
4642, 5203, 5204, 5252, 5251
4643, 5204, 5205, 5253, 5252
4644, 5205, 5206, 5254, 5253
4645, 5206, 5207, 5255, 5254
4646, 5207, 5208, 5256, 5255
4647, 5208, 5209, 5257, 5256
4648, 5209, 5210, 5258, 5257
4649, 5210, 5211, 5259, 5258
4650, 5211, 5212, 5260, 5259
4651, 5212, 5213, 5261, 5260
4652, 5213, 5214, 5262, 5261
4653, 5214, 5215, 5263, 5262
4654, 5215, 5216, 5264, 5263
4655, 5216,  431,  432, 5264
4656,  473, 5217, 5265,  472
4657, 5217, 5218, 5266, 5265
4658, 5218, 5219, 5267, 5266
4659, 5219, 5220, 5268, 5267
4660, 5220, 5221, 5269, 5268
4661, 5221, 5222, 5270, 5269
4662, 5222, 5223, 5271, 5270
4663, 5223, 5224, 5272, 5271
4664, 5224, 5225, 5273, 5272
4665, 5225, 5226, 5274, 5273
4666, 5226, 5227, 5275, 5274
4667, 5227, 5228, 5276, 5275
4668, 5228, 5229, 5277, 5276
4669, 5229, 5230, 5278, 5277
4670, 5230, 5231, 5279, 5278
4671, 5231, 5232, 5280, 5279
4672, 5232, 5233, 5281, 5280
4673, 5233, 5234, 5282, 5281
4674, 5234, 5235, 5283, 5282
4675, 5235, 5236, 5284, 5283
4676, 5236, 5237, 5285, 5284
4677, 5237, 5238, 5286, 5285
4678, 5238, 5239, 5287, 5286
4679, 5239, 5240, 5288, 5287
4680, 5240, 5241, 5289, 5288
4681, 5241, 5242, 5290, 5289
4682, 5242, 5243, 5291, 5290
4683, 5243, 5244, 5292, 5291
4684, 5244, 5245, 5293, 5292
4685, 5245, 5246, 5294, 5293
4686, 5246, 5247, 5295, 5294
4687, 5247, 5248, 5296, 5295
4688, 5248, 5249, 5297, 5296
4689, 5249, 5250, 5298, 5297
4690, 5250, 5251, 5299, 5298
4691, 5251, 5252, 5300, 5299
4692, 5252, 5253, 5301, 5300
4693, 5253, 5254, 5302, 5301
4694, 5254, 5255, 5303, 5302
4695, 5255, 5256, 5304, 5303
4696, 5256, 5257, 5305, 5304
4697, 5257, 5258, 5306, 5305
4698, 5258, 5259, 5307, 5306
4699, 5259, 5260, 5308, 5307
4700, 5260, 5261, 5309, 5308
4701, 5261, 5262, 5310, 5309
4702, 5262, 5263, 5311, 5310
4703, 5263, 5264, 5312, 5311
4704, 5264,  432,  433, 5312
4705,  472, 5265, 5313,  471
4706, 5265, 5266, 5314, 5313
4707, 5266, 5267, 5315, 5314
4708, 5267, 5268, 5316, 5315
4709, 5268, 5269, 5317, 5316
4710, 5269, 5270, 5318, 5317
4711, 5270, 5271, 5319, 5318
4712, 5271, 5272, 5320, 5319
4713, 5272, 5273, 5321, 5320
4714, 5273, 5274, 5322, 5321
4715, 5274, 5275, 5323, 5322
4716, 5275, 5276, 5324, 5323
4717, 5276, 5277, 5325, 5324
4718, 5277, 5278, 5326, 5325
4719, 5278, 5279, 5327, 5326
4720, 5279, 5280, 5328, 5327
4721, 5280, 5281, 5329, 5328
4722, 5281, 5282, 5330, 5329
4723, 5282, 5283, 5331, 5330
4724, 5283, 5284, 5332, 5331
4725, 5284, 5285, 5333, 5332
4726, 5285, 5286, 5334, 5333
4727, 5286, 5287, 5335, 5334
4728, 5287, 5288, 5336, 5335
4729, 5288, 5289, 5337, 5336
4730, 5289, 5290, 5338, 5337
4731, 5290, 5291, 5339, 5338
4732, 5291, 5292, 5340, 5339
4733, 5292, 5293, 5341, 5340
4734, 5293, 5294, 5342, 5341
4735, 5294, 5295, 5343, 5342
4736, 5295, 5296, 5344, 5343
4737, 5296, 5297, 5345, 5344
4738, 5297, 5298, 5346, 5345
4739, 5298, 5299, 5347, 5346
4740, 5299, 5300, 5348, 5347
4741, 5300, 5301, 5349, 5348
4742, 5301, 5302, 5350, 5349
4743, 5302, 5303, 5351, 5350
4744, 5303, 5304, 5352, 5351
4745, 5304, 5305, 5353, 5352
4746, 5305, 5306, 5354, 5353
4747, 5306, 5307, 5355, 5354
4748, 5307, 5308, 5356, 5355
4749, 5308, 5309, 5357, 5356
4750, 5309, 5310, 5358, 5357
4751, 5310, 5311, 5359, 5358
4752, 5311, 5312, 5360, 5359
4753, 5312,  433,  434, 5360
4754,  471, 5313, 5361,  470
4755, 5313, 5314, 5362, 5361
4756, 5314, 5315, 5363, 5362
4757, 5315, 5316, 5364, 5363
4758, 5316, 5317, 5365, 5364
4759, 5317, 5318, 5366, 5365
4760, 5318, 5319, 5367, 5366
4761, 5319, 5320, 5368, 5367
4762, 5320, 5321, 5369, 5368
4763, 5321, 5322, 5370, 5369
4764, 5322, 5323, 5371, 5370
4765, 5323, 5324, 5372, 5371
4766, 5324, 5325, 5373, 5372
4767, 5325, 5326, 5374, 5373
4768, 5326, 5327, 5375, 5374
4769, 5327, 5328, 5376, 5375
4770, 5328, 5329, 5377, 5376
4771, 5329, 5330, 5378, 5377
4772, 5330, 5331, 5379, 5378
4773, 5331, 5332, 5380, 5379
4774, 5332, 5333, 5381, 5380
4775, 5333, 5334, 5382, 5381
4776, 5334, 5335, 5383, 5382
4777, 5335, 5336, 5384, 5383
4778, 5336, 5337, 5385, 5384
4779, 5337, 5338, 5386, 5385
4780, 5338, 5339, 5387, 5386
4781, 5339, 5340, 5388, 5387
4782, 5340, 5341, 5389, 5388
4783, 5341, 5342, 5390, 5389
4784, 5342, 5343, 5391, 5390
4785, 5343, 5344, 5392, 5391
4786, 5344, 5345, 5393, 5392
4787, 5345, 5346, 5394, 5393
4788, 5346, 5347, 5395, 5394
4789, 5347, 5348, 5396, 5395
4790, 5348, 5349, 5397, 5396
4791, 5349, 5350, 5398, 5397
4792, 5350, 5351, 5399, 5398
4793, 5351, 5352, 5400, 5399
4794, 5352, 5353, 5401, 5400
4795, 5353, 5354, 5402, 5401
4796, 5354, 5355, 5403, 5402
4797, 5355, 5356, 5404, 5403
4798, 5356, 5357, 5405, 5404
4799, 5357, 5358, 5406, 5405
4800, 5358, 5359, 5407, 5406
4801, 5359, 5360, 5408, 5407
4802, 5360,  434,  435, 5408
4803,  470, 5361, 5409,  469
4804, 5361, 5362, 5410, 5409
4805, 5362, 5363, 5411, 5410
4806, 5363, 5364, 5412, 5411
4807, 5364, 5365, 5413, 5412
4808, 5365, 5366, 5414, 5413
4809, 5366, 5367, 5415, 5414
4810, 5367, 5368, 5416, 5415
4811, 5368, 5369, 5417, 5416
4812, 5369, 5370, 5418, 5417
4813, 5370, 5371, 5419, 5418
4814, 5371, 5372, 5420, 5419
4815, 5372, 5373, 5421, 5420
4816, 5373, 5374, 5422, 5421
4817, 5374, 5375, 5423, 5422
4818, 5375, 5376, 5424, 5423
4819, 5376, 5377, 5425, 5424
4820, 5377, 5378, 5426, 5425
4821, 5378, 5379, 5427, 5426
4822, 5379, 5380, 5428, 5427
4823, 5380, 5381, 5429, 5428
4824, 5381, 5382, 5430, 5429
4825, 5382, 5383, 5431, 5430
4826, 5383, 5384, 5432, 5431
4827, 5384, 5385, 5433, 5432
4828, 5385, 5386, 5434, 5433
4829, 5386, 5387, 5435, 5434
4830, 5387, 5388, 5436, 5435
4831, 5388, 5389, 5437, 5436
4832, 5389, 5390, 5438, 5437
4833, 5390, 5391, 5439, 5438
4834, 5391, 5392, 5440, 5439
4835, 5392, 5393, 5441, 5440
4836, 5393, 5394, 5442, 5441
4837, 5394, 5395, 5443, 5442
4838, 5395, 5396, 5444, 5443
4839, 5396, 5397, 5445, 5444
4840, 5397, 5398, 5446, 5445
4841, 5398, 5399, 5447, 5446
4842, 5399, 5400, 5448, 5447
4843, 5400, 5401, 5449, 5448
4844, 5401, 5402, 5450, 5449
4845, 5402, 5403, 5451, 5450
4846, 5403, 5404, 5452, 5451
4847, 5404, 5405, 5453, 5452
4848, 5405, 5406, 5454, 5453
4849, 5406, 5407, 5455, 5454
4850, 5407, 5408, 5456, 5455
4851, 5408,  435,  436, 5456
4852,  469, 5409, 5457,  468
4853, 5409, 5410, 5458, 5457
4854, 5410, 5411, 5459, 5458
4855, 5411, 5412, 5460, 5459
4856, 5412, 5413, 5461, 5460
4857, 5413, 5414, 5462, 5461
4858, 5414, 5415, 5463, 5462
4859, 5415, 5416, 5464, 5463
4860, 5416, 5417, 5465, 5464
4861, 5417, 5418, 5466, 5465
4862, 5418, 5419, 5467, 5466
4863, 5419, 5420, 5468, 5467
4864, 5420, 5421, 5469, 5468
4865, 5421, 5422, 5470, 5469
4866, 5422, 5423, 5471, 5470
4867, 5423, 5424, 5472, 5471
4868, 5424, 5425, 5473, 5472
4869, 5425, 5426, 5474, 5473
4870, 5426, 5427, 5475, 5474
4871, 5427, 5428, 5476, 5475
4872, 5428, 5429, 5477, 5476
4873, 5429, 5430, 5478, 5477
4874, 5430, 5431, 5479, 5478
4875, 5431, 5432, 5480, 5479
4876, 5432, 5433, 5481, 5480
4877, 5433, 5434, 5482, 5481
4878, 5434, 5435, 5483, 5482
4879, 5435, 5436, 5484, 5483
4880, 5436, 5437, 5485, 5484
4881, 5437, 5438, 5486, 5485
4882, 5438, 5439, 5487, 5486
4883, 5439, 5440, 5488, 5487
4884, 5440, 5441, 5489, 5488
4885, 5441, 5442, 5490, 5489
4886, 5442, 5443, 5491, 5490
4887, 5443, 5444, 5492, 5491
4888, 5444, 5445, 5493, 5492
4889, 5445, 5446, 5494, 5493
4890, 5446, 5447, 5495, 5494
4891, 5447, 5448, 5496, 5495
4892, 5448, 5449, 5497, 5496
4893, 5449, 5450, 5498, 5497
4894, 5450, 5451, 5499, 5498
4895, 5451, 5452, 5500, 5499
4896, 5452, 5453, 5501, 5500
4897, 5453, 5454, 5502, 5501
4898, 5454, 5455, 5503, 5502
4899, 5455, 5456, 5504, 5503
4900, 5456,  436,  437, 5504
4901,  468, 5457, 5505,  467
4902, 5457, 5458, 5506, 5505
4903, 5458, 5459, 5507, 5506
4904, 5459, 5460, 5508, 5507
4905, 5460, 5461, 5509, 5508
4906, 5461, 5462, 5510, 5509
4907, 5462, 5463, 5511, 5510
4908, 5463, 5464, 5512, 5511
4909, 5464, 5465, 5513, 5512
4910, 5465, 5466, 5514, 5513
4911, 5466, 5467, 5515, 5514
4912, 5467, 5468, 5516, 5515
4913, 5468, 5469, 5517, 5516
4914, 5469, 5470, 5518, 5517
4915, 5470, 5471, 5519, 5518
4916, 5471, 5472, 5520, 5519
4917, 5472, 5473, 5521, 5520
4918, 5473, 5474, 5522, 5521
4919, 5474, 5475, 5523, 5522
4920, 5475, 5476, 5524, 5523
4921, 5476, 5477, 5525, 5524
4922, 5477, 5478, 5526, 5525
4923, 5478, 5479, 5527, 5526
4924, 5479, 5480, 5528, 5527
4925, 5480, 5481, 5529, 5528
4926, 5481, 5482, 5530, 5529
4927, 5482, 5483, 5531, 5530
4928, 5483, 5484, 5532, 5531
4929, 5484, 5485, 5533, 5532
4930, 5485, 5486, 5534, 5533
4931, 5486, 5487, 5535, 5534
4932, 5487, 5488, 5536, 5535
4933, 5488, 5489, 5537, 5536
4934, 5489, 5490, 5538, 5537
4935, 5490, 5491, 5539, 5538
4936, 5491, 5492, 5540, 5539
4937, 5492, 5493, 5541, 5540
4938, 5493, 5494, 5542, 5541
4939, 5494, 5495, 5543, 5542
4940, 5495, 5496, 5544, 5543
4941, 5496, 5497, 5545, 5544
4942, 5497, 5498, 5546, 5545
4943, 5498, 5499, 5547, 5546
4944, 5499, 5500, 5548, 5547
4945, 5500, 5501, 5549, 5548
4946, 5501, 5502, 5550, 5549
4947, 5502, 5503, 5551, 5550
4948, 5503, 5504, 5552, 5551
4949, 5504,  437,  438, 5552
4950,  467, 5505, 5553,  466
4951, 5505, 5506, 5554, 5553
4952, 5506, 5507, 5555, 5554
4953, 5507, 5508, 5556, 5555
4954, 5508, 5509, 5557, 5556
4955, 5509, 5510, 5558, 5557
4956, 5510, 5511, 5559, 5558
4957, 5511, 5512, 5560, 5559
4958, 5512, 5513, 5561, 5560
4959, 5513, 5514, 5562, 5561
4960, 5514, 5515, 5563, 5562
4961, 5515, 5516, 5564, 5563
4962, 5516, 5517, 5565, 5564
4963, 5517, 5518, 5566, 5565
4964, 5518, 5519, 5567, 5566
4965, 5519, 5520, 5568, 5567
4966, 5520, 5521, 5569, 5568
4967, 5521, 5522, 5570, 5569
4968, 5522, 5523, 5571, 5570
4969, 5523, 5524, 5572, 5571
4970, 5524, 5525, 5573, 5572
4971, 5525, 5526, 5574, 5573
4972, 5526, 5527, 5575, 5574
4973, 5527, 5528, 5576, 5575
4974, 5528, 5529, 5577, 5576
4975, 5529, 5530, 5578, 5577
4976, 5530, 5531, 5579, 5578
4977, 5531, 5532, 5580, 5579
4978, 5532, 5533, 5581, 5580
4979, 5533, 5534, 5582, 5581
4980, 5534, 5535, 5583, 5582
4981, 5535, 5536, 5584, 5583
4982, 5536, 5537, 5585, 5584
4983, 5537, 5538, 5586, 5585
4984, 5538, 5539, 5587, 5586
4985, 5539, 5540, 5588, 5587
4986, 5540, 5541, 5589, 5588
4987, 5541, 5542, 5590, 5589
4988, 5542, 5543, 5591, 5590
4989, 5543, 5544, 5592, 5591
4990, 5544, 5545, 5593, 5592
4991, 5545, 5546, 5594, 5593
4992, 5546, 5547, 5595, 5594
4993, 5547, 5548, 5596, 5595
4994, 5548, 5549, 5597, 5596
4995, 5549, 5550, 5598, 5597
4996, 5550, 5551, 5599, 5598
4997, 5551, 5552, 5600, 5599
4998, 5552,  438,  439, 5600
4999,  466, 5553, 5601,  465
5000, 5553, 5554, 5602, 5601
5001, 5554, 5555, 5603, 5602
5002, 5555, 5556, 5604, 5603
5003, 5556, 5557, 5605, 5604
5004, 5557, 5558, 5606, 5605
5005, 5558, 5559, 5607, 5606
5006, 5559, 5560, 5608, 5607
5007, 5560, 5561, 5609, 5608
5008, 5561, 5562, 5610, 5609
5009, 5562, 5563, 5611, 5610
5010, 5563, 5564, 5612, 5611
5011, 5564, 5565, 5613, 5612
5012, 5565, 5566, 5614, 5613
5013, 5566, 5567, 5615, 5614
5014, 5567, 5568, 5616, 5615
5015, 5568, 5569, 5617, 5616
5016, 5569, 5570, 5618, 5617
5017, 5570, 5571, 5619, 5618
5018, 5571, 5572, 5620, 5619
5019, 5572, 5573, 5621, 5620
5020, 5573, 5574, 5622, 5621
5021, 5574, 5575, 5623, 5622
5022, 5575, 5576, 5624, 5623
5023, 5576, 5577, 5625, 5624
5024, 5577, 5578, 5626, 5625
5025, 5578, 5579, 5627, 5626
5026, 5579, 5580, 5628, 5627
5027, 5580, 5581, 5629, 5628
5028, 5581, 5582, 5630, 5629
5029, 5582, 5583, 5631, 5630
5030, 5583, 5584, 5632, 5631
5031, 5584, 5585, 5633, 5632
5032, 5585, 5586, 5634, 5633
5033, 5586, 5587, 5635, 5634
5034, 5587, 5588, 5636, 5635
5035, 5588, 5589, 5637, 5636
5036, 5589, 5590, 5638, 5637
5037, 5590, 5591, 5639, 5638
5038, 5591, 5592, 5640, 5639
5039, 5592, 5593, 5641, 5640
5040, 5593, 5594, 5642, 5641
5041, 5594, 5595, 5643, 5642
5042, 5595, 5596, 5644, 5643
5043, 5596, 5597, 5645, 5644
5044, 5597, 5598, 5646, 5645
5045, 5598, 5599, 5647, 5646
5046, 5599, 5600, 5648, 5647
5047, 5600,  439,  440, 5648
5048,  465, 5601, 5649,  464
5049, 5601, 5602, 5650, 5649
5050, 5602, 5603, 5651, 5650
5051, 5603, 5604, 5652, 5651
5052, 5604, 5605, 5653, 5652
5053, 5605, 5606, 5654, 5653
5054, 5606, 5607, 5655, 5654
5055, 5607, 5608, 5656, 5655
5056, 5608, 5609, 5657, 5656
5057, 5609, 5610, 5658, 5657
5058, 5610, 5611, 5659, 5658
5059, 5611, 5612, 5660, 5659
5060, 5612, 5613, 5661, 5660
5061, 5613, 5614, 5662, 5661
5062, 5614, 5615, 5663, 5662
5063, 5615, 5616, 5664, 5663
5064, 5616, 5617, 5665, 5664
5065, 5617, 5618, 5666, 5665
5066, 5618, 5619, 5667, 5666
5067, 5619, 5620, 5668, 5667
5068, 5620, 5621, 5669, 5668
5069, 5621, 5622, 5670, 5669
5070, 5622, 5623, 5671, 5670
5071, 5623, 5624, 5672, 5671
5072, 5624, 5625, 5673, 5672
5073, 5625, 5626, 5674, 5673
5074, 5626, 5627, 5675, 5674
5075, 5627, 5628, 5676, 5675
5076, 5628, 5629, 5677, 5676
5077, 5629, 5630, 5678, 5677
5078, 5630, 5631, 5679, 5678
5079, 5631, 5632, 5680, 5679
5080, 5632, 5633, 5681, 5680
5081, 5633, 5634, 5682, 5681
5082, 5634, 5635, 5683, 5682
5083, 5635, 5636, 5684, 5683
5084, 5636, 5637, 5685, 5684
5085, 5637, 5638, 5686, 5685
5086, 5638, 5639, 5687, 5686
5087, 5639, 5640, 5688, 5687
5088, 5640, 5641, 5689, 5688
5089, 5641, 5642, 5690, 5689
5090, 5642, 5643, 5691, 5690
5091, 5643, 5644, 5692, 5691
5092, 5644, 5645, 5693, 5692
5093, 5645, 5646, 5694, 5693
5094, 5646, 5647, 5695, 5694
5095, 5647, 5648, 5696, 5695
5096, 5648,  440,  441, 5696
5097,  464, 5649, 5697,  463
5098, 5649, 5650, 5698, 5697
5099, 5650, 5651, 5699, 5698
5100, 5651, 5652, 5700, 5699
5101, 5652, 5653, 5701, 5700
5102, 5653, 5654, 5702, 5701
5103, 5654, 5655, 5703, 5702
5104, 5655, 5656, 5704, 5703
5105, 5656, 5657, 5705, 5704
5106, 5657, 5658, 5706, 5705
5107, 5658, 5659, 5707, 5706
5108, 5659, 5660, 5708, 5707
5109, 5660, 5661, 5709, 5708
5110, 5661, 5662, 5710, 5709
5111, 5662, 5663, 5711, 5710
5112, 5663, 5664, 5712, 5711
5113, 5664, 5665, 5713, 5712
5114, 5665, 5666, 5714, 5713
5115, 5666, 5667, 5715, 5714
5116, 5667, 5668, 5716, 5715
5117, 5668, 5669, 5717, 5716
5118, 5669, 5670, 5718, 5717
5119, 5670, 5671, 5719, 5718
5120, 5671, 5672, 5720, 5719
5121, 5672, 5673, 5721, 5720
5122, 5673, 5674, 5722, 5721
5123, 5674, 5675, 5723, 5722
5124, 5675, 5676, 5724, 5723
5125, 5676, 5677, 5725, 5724
5126, 5677, 5678, 5726, 5725
5127, 5678, 5679, 5727, 5726
5128, 5679, 5680, 5728, 5727
5129, 5680, 5681, 5729, 5728
5130, 5681, 5682, 5730, 5729
5131, 5682, 5683, 5731, 5730
5132, 5683, 5684, 5732, 5731
5133, 5684, 5685, 5733, 5732
5134, 5685, 5686, 5734, 5733
5135, 5686, 5687, 5735, 5734
5136, 5687, 5688, 5736, 5735
5137, 5688, 5689, 5737, 5736
5138, 5689, 5690, 5738, 5737
5139, 5690, 5691, 5739, 5738
5140, 5691, 5692, 5740, 5739
5141, 5692, 5693, 5741, 5740
5142, 5693, 5694, 5742, 5741
5143, 5694, 5695, 5743, 5742
5144, 5695, 5696, 5744, 5743
5145, 5696,  441,  442, 5744
5146,  463, 5697, 5745,  462
5147, 5697, 5698, 5746, 5745
5148, 5698, 5699, 5747, 5746
5149, 5699, 5700, 5748, 5747
5150, 5700, 5701, 5749, 5748
5151, 5701, 5702, 5750, 5749
5152, 5702, 5703, 5751, 5750
5153, 5703, 5704, 5752, 5751
5154, 5704, 5705, 5753, 5752
5155, 5705, 5706, 5754, 5753
5156, 5706, 5707, 5755, 5754
5157, 5707, 5708, 5756, 5755
5158, 5708, 5709, 5757, 5756
5159, 5709, 5710, 5758, 5757
5160, 5710, 5711, 5759, 5758
5161, 5711, 5712, 5760, 5759
5162, 5712, 5713, 5761, 5760
5163, 5713, 5714, 5762, 5761
5164, 5714, 5715, 5763, 5762
5165, 5715, 5716, 5764, 5763
5166, 5716, 5717, 5765, 5764
5167, 5717, 5718, 5766, 5765
5168, 5718, 5719, 5767, 5766
5169, 5719, 5720, 5768, 5767
5170, 5720, 5721, 5769, 5768
5171, 5721, 5722, 5770, 5769
5172, 5722, 5723, 5771, 5770
5173, 5723, 5724, 5772, 5771
5174, 5724, 5725, 5773, 5772
5175, 5725, 5726, 5774, 5773
5176, 5726, 5727, 5775, 5774
5177, 5727, 5728, 5776, 5775
5178, 5728, 5729, 5777, 5776
5179, 5729, 5730, 5778, 5777
5180, 5730, 5731, 5779, 5778
5181, 5731, 5732, 5780, 5779
5182, 5732, 5733, 5781, 5780
5183, 5733, 5734, 5782, 5781
5184, 5734, 5735, 5783, 5782
5185, 5735, 5736, 5784, 5783
5186, 5736, 5737, 5785, 5784
5187, 5737, 5738, 5786, 5785
5188, 5738, 5739, 5787, 5786
5189, 5739, 5740, 5788, 5787
5190, 5740, 5741, 5789, 5788
5191, 5741, 5742, 5790, 5789
5192, 5742, 5743, 5791, 5790
5193, 5743, 5744, 5792, 5791
5194, 5744,  442,  443, 5792
5195,  462, 5745, 5793,  461
5196, 5745, 5746, 5794, 5793
5197, 5746, 5747, 5795, 5794
5198, 5747, 5748, 5796, 5795
5199, 5748, 5749, 5797, 5796
5200, 5749, 5750, 5798, 5797
5201, 5750, 5751, 5799, 5798
5202, 5751, 5752, 5800, 5799
5203, 5752, 5753, 5801, 5800
5204, 5753, 5754, 5802, 5801
5205, 5754, 5755, 5803, 5802
5206, 5755, 5756, 5804, 5803
5207, 5756, 5757, 5805, 5804
5208, 5757, 5758, 5806, 5805
5209, 5758, 5759, 5807, 5806
5210, 5759, 5760, 5808, 5807
5211, 5760, 5761, 5809, 5808
5212, 5761, 5762, 5810, 5809
5213, 5762, 5763, 5811, 5810
5214, 5763, 5764, 5812, 5811
5215, 5764, 5765, 5813, 5812
5216, 5765, 5766, 5814, 5813
5217, 5766, 5767, 5815, 5814
5218, 5767, 5768, 5816, 5815
5219, 5768, 5769, 5817, 5816
5220, 5769, 5770, 5818, 5817
5221, 5770, 5771, 5819, 5818
5222, 5771, 5772, 5820, 5819
5223, 5772, 5773, 5821, 5820
5224, 5773, 5774, 5822, 5821
5225, 5774, 5775, 5823, 5822
5226, 5775, 5776, 5824, 5823
5227, 5776, 5777, 5825, 5824
5228, 5777, 5778, 5826, 5825
5229, 5778, 5779, 5827, 5826
5230, 5779, 5780, 5828, 5827
5231, 5780, 5781, 5829, 5828
5232, 5781, 5782, 5830, 5829
5233, 5782, 5783, 5831, 5830
5234, 5783, 5784, 5832, 5831
5235, 5784, 5785, 5833, 5832
5236, 5785, 5786, 5834, 5833
5237, 5786, 5787, 5835, 5834
5238, 5787, 5788, 5836, 5835
5239, 5788, 5789, 5837, 5836
5240, 5789, 5790, 5838, 5837
5241, 5790, 5791, 5839, 5838
5242, 5791, 5792, 5840, 5839
5243, 5792,  443,  444, 5840
5244,  461, 5793, 5841,  460
5245, 5793, 5794, 5842, 5841
5246, 5794, 5795, 5843, 5842
5247, 5795, 5796, 5844, 5843
5248, 5796, 5797, 5845, 5844
5249, 5797, 5798, 5846, 5845
5250, 5798, 5799, 5847, 5846
5251, 5799, 5800, 5848, 5847
5252, 5800, 5801, 5849, 5848
5253, 5801, 5802, 5850, 5849
5254, 5802, 5803, 5851, 5850
5255, 5803, 5804, 5852, 5851
5256, 5804, 5805, 5853, 5852
5257, 5805, 5806, 5854, 5853
5258, 5806, 5807, 5855, 5854
5259, 5807, 5808, 5856, 5855
5260, 5808, 5809, 5857, 5856
5261, 5809, 5810, 5858, 5857
5262, 5810, 5811, 5859, 5858
5263, 5811, 5812, 5860, 5859
5264, 5812, 5813, 5861, 5860
5265, 5813, 5814, 5862, 5861
5266, 5814, 5815, 5863, 5862
5267, 5815, 5816, 5864, 5863
5268, 5816, 5817, 5865, 5864
5269, 5817, 5818, 5866, 5865
5270, 5818, 5819, 5867, 5866
5271, 5819, 5820, 5868, 5867
5272, 5820, 5821, 5869, 5868
5273, 5821, 5822, 5870, 5869
5274, 5822, 5823, 5871, 5870
5275, 5823, 5824, 5872, 5871
5276, 5824, 5825, 5873, 5872
5277, 5825, 5826, 5874, 5873
5278, 5826, 5827, 5875, 5874
5279, 5827, 5828, 5876, 5875
5280, 5828, 5829, 5877, 5876
5281, 5829, 5830, 5878, 5877
5282, 5830, 5831, 5879, 5878
5283, 5831, 5832, 5880, 5879
5284, 5832, 5833, 5881, 5880
5285, 5833, 5834, 5882, 5881
5286, 5834, 5835, 5883, 5882
5287, 5835, 5836, 5884, 5883
5288, 5836, 5837, 5885, 5884
5289, 5837, 5838, 5886, 5885
5290, 5838, 5839, 5887, 5886
5291, 5839, 5840, 5888, 5887
5292, 5840,  444,  445, 5888
5293,  460, 5841, 5889,  459
5294, 5841, 5842, 5890, 5889
5295, 5842, 5843, 5891, 5890
5296, 5843, 5844, 5892, 5891
5297, 5844, 5845, 5893, 5892
5298, 5845, 5846, 5894, 5893
5299, 5846, 5847, 5895, 5894
5300, 5847, 5848, 5896, 5895
5301, 5848, 5849, 5897, 5896
5302, 5849, 5850, 5898, 5897
5303, 5850, 5851, 5899, 5898
5304, 5851, 5852, 5900, 5899
5305, 5852, 5853, 5901, 5900
5306, 5853, 5854, 5902, 5901
5307, 5854, 5855, 5903, 5902
5308, 5855, 5856, 5904, 5903
5309, 5856, 5857, 5905, 5904
5310, 5857, 5858, 5906, 5905
5311, 5858, 5859, 5907, 5906
5312, 5859, 5860, 5908, 5907
5313, 5860, 5861, 5909, 5908
5314, 5861, 5862, 5910, 5909
5315, 5862, 5863, 5911, 5910
5316, 5863, 5864, 5912, 5911
5317, 5864, 5865, 5913, 5912
5318, 5865, 5866, 5914, 5913
5319, 5866, 5867, 5915, 5914
5320, 5867, 5868, 5916, 5915
5321, 5868, 5869, 5917, 5916
5322, 5869, 5870, 5918, 5917
5323, 5870, 5871, 5919, 5918
5324, 5871, 5872, 5920, 5919
5325, 5872, 5873, 5921, 5920
5326, 5873, 5874, 5922, 5921
5327, 5874, 5875, 5923, 5922
5328, 5875, 5876, 5924, 5923
5329, 5876, 5877, 5925, 5924
5330, 5877, 5878, 5926, 5925
5331, 5878, 5879, 5927, 5926
5332, 5879, 5880, 5928, 5927
5333, 5880, 5881, 5929, 5928
5334, 5881, 5882, 5930, 5929
5335, 5882, 5883, 5931, 5930
5336, 5883, 5884, 5932, 5931
5337, 5884, 5885, 5933, 5932
5338, 5885, 5886, 5934, 5933
5339, 5886, 5887, 5935, 5934
5340, 5887, 5888, 5936, 5935
5341, 5888,  445,  446, 5936
5342,  459, 5889, 5937,  458
5343, 5889, 5890, 5938, 5937
5344, 5890, 5891, 5939, 5938
5345, 5891, 5892, 5940, 5939
5346, 5892, 5893, 5941, 5940
5347, 5893, 5894, 5942, 5941
5348, 5894, 5895, 5943, 5942
5349, 5895, 5896, 5944, 5943
5350, 5896, 5897, 5945, 5944
5351, 5897, 5898, 5946, 5945
5352, 5898, 5899, 5947, 5946
5353, 5899, 5900, 5948, 5947
5354, 5900, 5901, 5949, 5948
5355, 5901, 5902, 5950, 5949
5356, 5902, 5903, 5951, 5950
5357, 5903, 5904, 5952, 5951
5358, 5904, 5905, 5953, 5952
5359, 5905, 5906, 5954, 5953
5360, 5906, 5907, 5955, 5954
5361, 5907, 5908, 5956, 5955
5362, 5908, 5909, 5957, 5956
5363, 5909, 5910, 5958, 5957
5364, 5910, 5911, 5959, 5958
5365, 5911, 5912, 5960, 5959
5366, 5912, 5913, 5961, 5960
5367, 5913, 5914, 5962, 5961
5368, 5914, 5915, 5963, 5962
5369, 5915, 5916, 5964, 5963
5370, 5916, 5917, 5965, 5964
5371, 5917, 5918, 5966, 5965
5372, 5918, 5919, 5967, 5966
5373, 5919, 5920, 5968, 5967
5374, 5920, 5921, 5969, 5968
5375, 5921, 5922, 5970, 5969
5376, 5922, 5923, 5971, 5970
5377, 5923, 5924, 5972, 5971
5378, 5924, 5925, 5973, 5972
5379, 5925, 5926, 5974, 5973
5380, 5926, 5927, 5975, 5974
5381, 5927, 5928, 5976, 5975
5382, 5928, 5929, 5977, 5976
5383, 5929, 5930, 5978, 5977
5384, 5930, 5931, 5979, 5978
5385, 5931, 5932, 5980, 5979
5386, 5932, 5933, 5981, 5980
5387, 5933, 5934, 5982, 5981
5388, 5934, 5935, 5983, 5982
5389, 5935, 5936, 5984, 5983
5390, 5936,  446,  447, 5984
5391,  458, 5937, 5985,  457
5392, 5937, 5938, 5986, 5985
5393, 5938, 5939, 5987, 5986
5394, 5939, 5940, 5988, 5987
5395, 5940, 5941, 5989, 5988
5396, 5941, 5942, 5990, 5989
5397, 5942, 5943, 5991, 5990
5398, 5943, 5944, 5992, 5991
5399, 5944, 5945, 5993, 5992
5400, 5945, 5946, 5994, 5993
5401, 5946, 5947, 5995, 5994
5402, 5947, 5948, 5996, 5995
5403, 5948, 5949, 5997, 5996
5404, 5949, 5950, 5998, 5997
5405, 5950, 5951, 5999, 5998
5406, 5951, 5952, 6000, 5999
5407, 5952, 5953, 6001, 6000
5408, 5953, 5954, 6002, 6001
5409, 5954, 5955, 6003, 6002
5410, 5955, 5956, 6004, 6003
5411, 5956, 5957, 6005, 6004
5412, 5957, 5958, 6006, 6005
5413, 5958, 5959, 6007, 6006
5414, 5959, 5960, 6008, 6007
5415, 5960, 5961, 6009, 6008
5416, 5961, 5962, 6010, 6009
5417, 5962, 5963, 6011, 6010
5418, 5963, 5964, 6012, 6011
5419, 5964, 5965, 6013, 6012
5420, 5965, 5966, 6014, 6013
5421, 5966, 5967, 6015, 6014
5422, 5967, 5968, 6016, 6015
5423, 5968, 5969, 6017, 6016
5424, 5969, 5970, 6018, 6017
5425, 5970, 5971, 6019, 6018
5426, 5971, 5972, 6020, 6019
5427, 5972, 5973, 6021, 6020
5428, 5973, 5974, 6022, 6021
5429, 5974, 5975, 6023, 6022
5430, 5975, 5976, 6024, 6023
5431, 5976, 5977, 6025, 6024
5432, 5977, 5978, 6026, 6025
5433, 5978, 5979, 6027, 6026
5434, 5979, 5980, 6028, 6027
5435, 5980, 5981, 6029, 6028
5436, 5981, 5982, 6030, 6029
5437, 5982, 5983, 6031, 6030
5438, 5983, 5984, 6032, 6031
5439, 5984,  447,  448, 6032
5440,  457, 5985, 6033,  456
5441, 5985, 5986, 6034, 6033
5442, 5986, 5987, 6035, 6034
5443, 5987, 5988, 6036, 6035
5444, 5988, 5989, 6037, 6036
5445, 5989, 5990, 6038, 6037
5446, 5990, 5991, 6039, 6038
5447, 5991, 5992, 6040, 6039
5448, 5992, 5993, 6041, 6040
5449, 5993, 5994, 6042, 6041
5450, 5994, 5995, 6043, 6042
5451, 5995, 5996, 6044, 6043
5452, 5996, 5997, 6045, 6044
5453, 5997, 5998, 6046, 6045
5454, 5998, 5999, 6047, 6046
5455, 5999, 6000, 6048, 6047
5456, 6000, 6001, 6049, 6048
5457, 6001, 6002, 6050, 6049
5458, 6002, 6003, 6051, 6050
5459, 6003, 6004, 6052, 6051
5460, 6004, 6005, 6053, 6052
5461, 6005, 6006, 6054, 6053
5462, 6006, 6007, 6055, 6054
5463, 6007, 6008, 6056, 6055
5464, 6008, 6009, 6057, 6056
5465, 6009, 6010, 6058, 6057
5466, 6010, 6011, 6059, 6058
5467, 6011, 6012, 6060, 6059
5468, 6012, 6013, 6061, 6060
5469, 6013, 6014, 6062, 6061
5470, 6014, 6015, 6063, 6062
5471, 6015, 6016, 6064, 6063
5472, 6016, 6017, 6065, 6064
5473, 6017, 6018, 6066, 6065
5474, 6018, 6019, 6067, 6066
5475, 6019, 6020, 6068, 6067
5476, 6020, 6021, 6069, 6068
5477, 6021, 6022, 6070, 6069
5478, 6022, 6023, 6071, 6070
5479, 6023, 6024, 6072, 6071
5480, 6024, 6025, 6073, 6072
5481, 6025, 6026, 6074, 6073
5482, 6026, 6027, 6075, 6074
5483, 6027, 6028, 6076, 6075
5484, 6028, 6029, 6077, 6076
5485, 6029, 6030, 6078, 6077
5486, 6030, 6031, 6079, 6078
5487, 6031, 6032, 6080, 6079
5488, 6032,  448,  449, 6080
5489,  456, 6033, 6081,  455
5490, 6033, 6034, 6082, 6081
5491, 6034, 6035, 6083, 6082
5492, 6035, 6036, 6084, 6083
5493, 6036, 6037, 6085, 6084
5494, 6037, 6038, 6086, 6085
5495, 6038, 6039, 6087, 6086
5496, 6039, 6040, 6088, 6087
5497, 6040, 6041, 6089, 6088
5498, 6041, 6042, 6090, 6089
5499, 6042, 6043, 6091, 6090
5500, 6043, 6044, 6092, 6091
5501, 6044, 6045, 6093, 6092
5502, 6045, 6046, 6094, 6093
5503, 6046, 6047, 6095, 6094
5504, 6047, 6048, 6096, 6095
5505, 6048, 6049, 6097, 6096
5506, 6049, 6050, 6098, 6097
5507, 6050, 6051, 6099, 6098
5508, 6051, 6052, 6100, 6099
5509, 6052, 6053, 6101, 6100
5510, 6053, 6054, 6102, 6101
5511, 6054, 6055, 6103, 6102
5512, 6055, 6056, 6104, 6103
5513, 6056, 6057, 6105, 6104
5514, 6057, 6058, 6106, 6105
5515, 6058, 6059, 6107, 6106
5516, 6059, 6060, 6108, 6107
5517, 6060, 6061, 6109, 6108
5518, 6061, 6062, 6110, 6109
5519, 6062, 6063, 6111, 6110
5520, 6063, 6064, 6112, 6111
5521, 6064, 6065, 6113, 6112
5522, 6065, 6066, 6114, 6113
5523, 6066, 6067, 6115, 6114
5524, 6067, 6068, 6116, 6115
5525, 6068, 6069, 6117, 6116
5526, 6069, 6070, 6118, 6117
5527, 6070, 6071, 6119, 6118
5528, 6071, 6072, 6120, 6119
5529, 6072, 6073, 6121, 6120
5530, 6073, 6074, 6122, 6121
5531, 6074, 6075, 6123, 6122
5532, 6075, 6076, 6124, 6123
5533, 6076, 6077, 6125, 6124
5534, 6077, 6078, 6126, 6125
5535, 6078, 6079, 6127, 6126
5536, 6079, 6080, 6128, 6127
5537, 6080,  449,  450, 6128
5538,  455, 6081, 6129,  454
5539, 6081, 6082, 6130, 6129
5540, 6082, 6083, 6131, 6130
5541, 6083, 6084, 6132, 6131
5542, 6084, 6085, 6133, 6132
5543, 6085, 6086, 6134, 6133
5544, 6086, 6087, 6135, 6134
5545, 6087, 6088, 6136, 6135
5546, 6088, 6089, 6137, 6136
5547, 6089, 6090, 6138, 6137
5548, 6090, 6091, 6139, 6138
5549, 6091, 6092, 6140, 6139
5550, 6092, 6093, 6141, 6140
5551, 6093, 6094, 6142, 6141
5552, 6094, 6095, 6143, 6142
5553, 6095, 6096, 6144, 6143
5554, 6096, 6097, 6145, 6144
5555, 6097, 6098, 6146, 6145
5556, 6098, 6099, 6147, 6146
5557, 6099, 6100, 6148, 6147
5558, 6100, 6101, 6149, 6148
5559, 6101, 6102, 6150, 6149
5560, 6102, 6103, 6151, 6150
5561, 6103, 6104, 6152, 6151
5562, 6104, 6105, 6153, 6152
5563, 6105, 6106, 6154, 6153
5564, 6106, 6107, 6155, 6154
5565, 6107, 6108, 6156, 6155
5566, 6108, 6109, 6157, 6156
5567, 6109, 6110, 6158, 6157
5568, 6110, 6111, 6159, 6158
5569, 6111, 6112, 6160, 6159
5570, 6112, 6113, 6161, 6160
5571, 6113, 6114, 6162, 6161
5572, 6114, 6115, 6163, 6162
5573, 6115, 6116, 6164, 6163
5574, 6116, 6117, 6165, 6164
5575, 6117, 6118, 6166, 6165
5576, 6118, 6119, 6167, 6166
5577, 6119, 6120, 6168, 6167
5578, 6120, 6121, 6169, 6168
5579, 6121, 6122, 6170, 6169
5580, 6122, 6123, 6171, 6170
5581, 6123, 6124, 6172, 6171
5582, 6124, 6125, 6173, 6172
5583, 6125, 6126, 6174, 6173
5584, 6126, 6127, 6175, 6174
5585, 6127, 6128, 6176, 6175
5586, 6128,  450,  451, 6176
5587,  454, 6129, 6177,  453
5588, 6129, 6130, 6178, 6177
5589, 6130, 6131, 6179, 6178
5590, 6131, 6132, 6180, 6179
5591, 6132, 6133, 6181, 6180
5592, 6133, 6134, 6182, 6181
5593, 6134, 6135, 6183, 6182
5594, 6135, 6136, 6184, 6183
5595, 6136, 6137, 6185, 6184
5596, 6137, 6138, 6186, 6185
5597, 6138, 6139, 6187, 6186
5598, 6139, 6140, 6188, 6187
5599, 6140, 6141, 6189, 6188
5600, 6141, 6142, 6190, 6189
5601, 6142, 6143, 6191, 6190
5602, 6143, 6144, 6192, 6191
5603, 6144, 6145, 6193, 6192
5604, 6145, 6146, 6194, 6193
5605, 6146, 6147, 6195, 6194
5606, 6147, 6148, 6196, 6195
5607, 6148, 6149, 6197, 6196
5608, 6149, 6150, 6198, 6197
5609, 6150, 6151, 6199, 6198
5610, 6151, 6152, 6200, 6199
5611, 6152, 6153, 6201, 6200
5612, 6153, 6154, 6202, 6201
5613, 6154, 6155, 6203, 6202
5614, 6155, 6156, 6204, 6203
5615, 6156, 6157, 6205, 6204
5616, 6157, 6158, 6206, 6205
5617, 6158, 6159, 6207, 6206
5618, 6159, 6160, 6208, 6207
5619, 6160, 6161, 6209, 6208
5620, 6161, 6162, 6210, 6209
5621, 6162, 6163, 6211, 6210
5622, 6163, 6164, 6212, 6211
5623, 6164, 6165, 6213, 6212
5624, 6165, 6166, 6214, 6213
5625, 6166, 6167, 6215, 6214
5626, 6167, 6168, 6216, 6215
5627, 6168, 6169, 6217, 6216
5628, 6169, 6170, 6218, 6217
5629, 6170, 6171, 6219, 6218
5630, 6171, 6172, 6220, 6219
5631, 6172, 6173, 6221, 6220
5632, 6173, 6174, 6222, 6221
5633, 6174, 6175, 6223, 6222
5634, 6175, 6176, 6224, 6223
5635, 6176,  451,  452, 6224
5636,  453, 6177,  197,    5
5637, 6177, 6178,  198,  197
5638, 6178, 6179,  199,  198
5639, 6179, 6180,  200,  199
5640, 6180, 6181,  201,  200
5641, 6181, 6182,  202,  201
5642, 6182, 6183,  203,  202
5643, 6183, 6184,  204,  203
5644, 6184, 6185,  205,  204
5645, 6185, 6186,  206,  205
5646, 6186, 6187,  207,  206
5647, 6187, 6188,  208,  207
5648, 6188, 6189,  209,  208
5649, 6189, 6190,  210,  209
5650, 6190, 6191,  211,  210
5651, 6191, 6192,  212,  211
5652, 6192, 6193,  213,  212
5653, 6193, 6194,  214,  213
5654, 6194, 6195,  215,  214
5655, 6195, 6196,  216,  215
5656, 6196, 6197,  217,  216
5657, 6197, 6198,  218,  217
5658, 6198, 6199,  219,  218
5659, 6199, 6200,  220,  219
5660, 6200, 6201,  221,  220
5661, 6201, 6202,  222,  221
5662, 6202, 6203,  223,  222
5663, 6203, 6204,  224,  223
5664, 6204, 6205,  225,  224
5665, 6205, 6206,  226,  225
5666, 6206, 6207,  227,  226
5667, 6207, 6208,  228,  227
5668, 6208, 6209,  229,  228
5669, 6209, 6210,  230,  229
5670, 6210, 6211,  231,  230
5671, 6211, 6212,  232,  231
5672, 6212, 6213,  233,  232
5673, 6213, 6214,  234,  233
5674, 6214, 6215,  235,  234
5675, 6215, 6216,  236,  235
5676, 6216, 6217,  237,  236
5677, 6217, 6218,  238,  237
5678, 6218, 6219,  239,  238
5679, 6219, 6220,  240,  239
5680, 6220, 6221,  241,  240
5681, 6221, 6222,  242,  241
5682, 6222, 6223,  243,  242
5683, 6223, 6224,  244,  243
5684, 6224,  452,    6,  244
5685,    8,  320, 6225,  584
5686,  320,  319, 6226, 6225
5687,  319,  318, 6227, 6226
5688,  318,  317, 6228, 6227
5689,  317,  316, 6229, 6228
5690,  316,  315, 6230, 6229
5691,  315,  314, 6231, 6230
5692,  314,  313, 6232, 6231
5693,  313,  312, 6233, 6232
5694,  312,  311, 6234, 6233
5695,  311,  310, 6235, 6234
5696,  310,  309, 6236, 6235
5697,  309,  308, 6237, 6236
5698,  308,  307, 6238, 6237
5699,  307,  306, 6239, 6238
5700,  306,  305, 6240, 6239
5701,  305,  304, 6241, 6240
5702,  304,  303, 6242, 6241
5703,  303,  302, 6243, 6242
5704,  302,  301, 6244, 6243
5705,  301,  300, 6245, 6244
5706,  300,  299, 6246, 6245
5707,  299,  298, 6247, 6246
5708,  298,  297, 6248, 6247
5709,  297,  296, 6249, 6248
5710,  296,  295, 6250, 6249
5711,  295,  294, 6251, 6250
5712,  294,  293, 6252, 6251
5713,  293,  292, 6253, 6252
5714,  292,  291, 6254, 6253
5715,  291,  290, 6255, 6254
5716,  290,  289, 6256, 6255
5717,  289,  288, 6257, 6256
5718,  288,  287, 6258, 6257
5719,  287,  286, 6259, 6258
5720,  286,  285, 6260, 6259
5721,  285,  284, 6261, 6260
5722,  284,  283, 6262, 6261
5723,  283,  282, 6263, 6262
5724,  282,  281, 6264, 6263
5725,  281,  280, 6265, 6264
5726,  280,  279, 6266, 6265
5727,  279,  278, 6267, 6266
5728,  278,  277, 6268, 6267
5729,  277,  276, 6269, 6268
5730,  276,  275, 6270, 6269
5731,  275,  274, 6271, 6270
5732,  274,  273, 6272, 6271
5733,  273,    7,  481, 6272
5734,  584, 6225, 6273,  583
5735, 6225, 6226, 6274, 6273
5736, 6226, 6227, 6275, 6274
5737, 6227, 6228, 6276, 6275
5738, 6228, 6229, 6277, 6276
5739, 6229, 6230, 6278, 6277
5740, 6230, 6231, 6279, 6278
5741, 6231, 6232, 6280, 6279
5742, 6232, 6233, 6281, 6280
5743, 6233, 6234, 6282, 6281
5744, 6234, 6235, 6283, 6282
5745, 6235, 6236, 6284, 6283
5746, 6236, 6237, 6285, 6284
5747, 6237, 6238, 6286, 6285
5748, 6238, 6239, 6287, 6286
5749, 6239, 6240, 6288, 6287
5750, 6240, 6241, 6289, 6288
5751, 6241, 6242, 6290, 6289
5752, 6242, 6243, 6291, 6290
5753, 6243, 6244, 6292, 6291
5754, 6244, 6245, 6293, 6292
5755, 6245, 6246, 6294, 6293
5756, 6246, 6247, 6295, 6294
5757, 6247, 6248, 6296, 6295
5758, 6248, 6249, 6297, 6296
5759, 6249, 6250, 6298, 6297
5760, 6250, 6251, 6299, 6298
5761, 6251, 6252, 6300, 6299
5762, 6252, 6253, 6301, 6300
5763, 6253, 6254, 6302, 6301
5764, 6254, 6255, 6303, 6302
5765, 6255, 6256, 6304, 6303
5766, 6256, 6257, 6305, 6304
5767, 6257, 6258, 6306, 6305
5768, 6258, 6259, 6307, 6306
5769, 6259, 6260, 6308, 6307
5770, 6260, 6261, 6309, 6308
5771, 6261, 6262, 6310, 6309
5772, 6262, 6263, 6311, 6310
5773, 6263, 6264, 6312, 6311
5774, 6264, 6265, 6313, 6312
5775, 6265, 6266, 6314, 6313
5776, 6266, 6267, 6315, 6314
5777, 6267, 6268, 6316, 6315
5778, 6268, 6269, 6317, 6316
5779, 6269, 6270, 6318, 6317
5780, 6270, 6271, 6319, 6318
5781, 6271, 6272, 6320, 6319
5782, 6272,  481,  482, 6320
5783,  583, 6273, 6321,  582
5784, 6273, 6274, 6322, 6321
5785, 6274, 6275, 6323, 6322
5786, 6275, 6276, 6324, 6323
5787, 6276, 6277, 6325, 6324
5788, 6277, 6278, 6326, 6325
5789, 6278, 6279, 6327, 6326
5790, 6279, 6280, 6328, 6327
5791, 6280, 6281, 6329, 6328
5792, 6281, 6282, 6330, 6329
5793, 6282, 6283, 6331, 6330
5794, 6283, 6284, 6332, 6331
5795, 6284, 6285, 6333, 6332
5796, 6285, 6286, 6334, 6333
5797, 6286, 6287, 6335, 6334
5798, 6287, 6288, 6336, 6335
5799, 6288, 6289, 6337, 6336
5800, 6289, 6290, 6338, 6337
5801, 6290, 6291, 6339, 6338
5802, 6291, 6292, 6340, 6339
5803, 6292, 6293, 6341, 6340
5804, 6293, 6294, 6342, 6341
5805, 6294, 6295, 6343, 6342
5806, 6295, 6296, 6344, 6343
5807, 6296, 6297, 6345, 6344
5808, 6297, 6298, 6346, 6345
5809, 6298, 6299, 6347, 6346
5810, 6299, 6300, 6348, 6347
5811, 6300, 6301, 6349, 6348
5812, 6301, 6302, 6350, 6349
5813, 6302, 6303, 6351, 6350
5814, 6303, 6304, 6352, 6351
5815, 6304, 6305, 6353, 6352
5816, 6305, 6306, 6354, 6353
5817, 6306, 6307, 6355, 6354
5818, 6307, 6308, 6356, 6355
5819, 6308, 6309, 6357, 6356
5820, 6309, 6310, 6358, 6357
5821, 6310, 6311, 6359, 6358
5822, 6311, 6312, 6360, 6359
5823, 6312, 6313, 6361, 6360
5824, 6313, 6314, 6362, 6361
5825, 6314, 6315, 6363, 6362
5826, 6315, 6316, 6364, 6363
5827, 6316, 6317, 6365, 6364
5828, 6317, 6318, 6366, 6365
5829, 6318, 6319, 6367, 6366
5830, 6319, 6320, 6368, 6367
5831, 6320,  482,  483, 6368
5832,  582, 6321, 6369,  581
5833, 6321, 6322, 6370, 6369
5834, 6322, 6323, 6371, 6370
5835, 6323, 6324, 6372, 6371
5836, 6324, 6325, 6373, 6372
5837, 6325, 6326, 6374, 6373
5838, 6326, 6327, 6375, 6374
5839, 6327, 6328, 6376, 6375
5840, 6328, 6329, 6377, 6376
5841, 6329, 6330, 6378, 6377
5842, 6330, 6331, 6379, 6378
5843, 6331, 6332, 6380, 6379
5844, 6332, 6333, 6381, 6380
5845, 6333, 6334, 6382, 6381
5846, 6334, 6335, 6383, 6382
5847, 6335, 6336, 6384, 6383
5848, 6336, 6337, 6385, 6384
5849, 6337, 6338, 6386, 6385
5850, 6338, 6339, 6387, 6386
5851, 6339, 6340, 6388, 6387
5852, 6340, 6341, 6389, 6388
5853, 6341, 6342, 6390, 6389
5854, 6342, 6343, 6391, 6390
5855, 6343, 6344, 6392, 6391
5856, 6344, 6345, 6393, 6392
5857, 6345, 6346, 6394, 6393
5858, 6346, 6347, 6395, 6394
5859, 6347, 6348, 6396, 6395
5860, 6348, 6349, 6397, 6396
5861, 6349, 6350, 6398, 6397
5862, 6350, 6351, 6399, 6398
5863, 6351, 6352, 6400, 6399
5864, 6352, 6353, 6401, 6400
5865, 6353, 6354, 6402, 6401
5866, 6354, 6355, 6403, 6402
5867, 6355, 6356, 6404, 6403
5868, 6356, 6357, 6405, 6404
5869, 6357, 6358, 6406, 6405
5870, 6358, 6359, 6407, 6406
5871, 6359, 6360, 6408, 6407
5872, 6360, 6361, 6409, 6408
5873, 6361, 6362, 6410, 6409
5874, 6362, 6363, 6411, 6410
5875, 6363, 6364, 6412, 6411
5876, 6364, 6365, 6413, 6412
5877, 6365, 6366, 6414, 6413
5878, 6366, 6367, 6415, 6414
5879, 6367, 6368, 6416, 6415
5880, 6368,  483,  484, 6416
5881,  581, 6369, 6417,  580
5882, 6369, 6370, 6418, 6417
5883, 6370, 6371, 6419, 6418
5884, 6371, 6372, 6420, 6419
5885, 6372, 6373, 6421, 6420
5886, 6373, 6374, 6422, 6421
5887, 6374, 6375, 6423, 6422
5888, 6375, 6376, 6424, 6423
5889, 6376, 6377, 6425, 6424
5890, 6377, 6378, 6426, 6425
5891, 6378, 6379, 6427, 6426
5892, 6379, 6380, 6428, 6427
5893, 6380, 6381, 6429, 6428
5894, 6381, 6382, 6430, 6429
5895, 6382, 6383, 6431, 6430
5896, 6383, 6384, 6432, 6431
5897, 6384, 6385, 6433, 6432
5898, 6385, 6386, 6434, 6433
5899, 6386, 6387, 6435, 6434
5900, 6387, 6388, 6436, 6435
5901, 6388, 6389, 6437, 6436
5902, 6389, 6390, 6438, 6437
5903, 6390, 6391, 6439, 6438
5904, 6391, 6392, 6440, 6439
5905, 6392, 6393, 6441, 6440
5906, 6393, 6394, 6442, 6441
5907, 6394, 6395, 6443, 6442
5908, 6395, 6396, 6444, 6443
5909, 6396, 6397, 6445, 6444
5910, 6397, 6398, 6446, 6445
5911, 6398, 6399, 6447, 6446
5912, 6399, 6400, 6448, 6447
5913, 6400, 6401, 6449, 6448
5914, 6401, 6402, 6450, 6449
5915, 6402, 6403, 6451, 6450
5916, 6403, 6404, 6452, 6451
5917, 6404, 6405, 6453, 6452
5918, 6405, 6406, 6454, 6453
5919, 6406, 6407, 6455, 6454
5920, 6407, 6408, 6456, 6455
5921, 6408, 6409, 6457, 6456
5922, 6409, 6410, 6458, 6457
5923, 6410, 6411, 6459, 6458
5924, 6411, 6412, 6460, 6459
5925, 6412, 6413, 6461, 6460
5926, 6413, 6414, 6462, 6461
5927, 6414, 6415, 6463, 6462
5928, 6415, 6416, 6464, 6463
5929, 6416,  484,  485, 6464
5930,  580, 6417, 6465,  579
5931, 6417, 6418, 6466, 6465
5932, 6418, 6419, 6467, 6466
5933, 6419, 6420, 6468, 6467
5934, 6420, 6421, 6469, 6468
5935, 6421, 6422, 6470, 6469
5936, 6422, 6423, 6471, 6470
5937, 6423, 6424, 6472, 6471
5938, 6424, 6425, 6473, 6472
5939, 6425, 6426, 6474, 6473
5940, 6426, 6427, 6475, 6474
5941, 6427, 6428, 6476, 6475
5942, 6428, 6429, 6477, 6476
5943, 6429, 6430, 6478, 6477
5944, 6430, 6431, 6479, 6478
5945, 6431, 6432, 6480, 6479
5946, 6432, 6433, 6481, 6480
5947, 6433, 6434, 6482, 6481
5948, 6434, 6435, 6483, 6482
5949, 6435, 6436, 6484, 6483
5950, 6436, 6437, 6485, 6484
5951, 6437, 6438, 6486, 6485
5952, 6438, 6439, 6487, 6486
5953, 6439, 6440, 6488, 6487
5954, 6440, 6441, 6489, 6488
5955, 6441, 6442, 6490, 6489
5956, 6442, 6443, 6491, 6490
5957, 6443, 6444, 6492, 6491
5958, 6444, 6445, 6493, 6492
5959, 6445, 6446, 6494, 6493
5960, 6446, 6447, 6495, 6494
5961, 6447, 6448, 6496, 6495
5962, 6448, 6449, 6497, 6496
5963, 6449, 6450, 6498, 6497
5964, 6450, 6451, 6499, 6498
5965, 6451, 6452, 6500, 6499
5966, 6452, 6453, 6501, 6500
5967, 6453, 6454, 6502, 6501
5968, 6454, 6455, 6503, 6502
5969, 6455, 6456, 6504, 6503
5970, 6456, 6457, 6505, 6504
5971, 6457, 6458, 6506, 6505
5972, 6458, 6459, 6507, 6506
5973, 6459, 6460, 6508, 6507
5974, 6460, 6461, 6509, 6508
5975, 6461, 6462, 6510, 6509
5976, 6462, 6463, 6511, 6510
5977, 6463, 6464, 6512, 6511
5978, 6464,  485,  486, 6512
5979,  579, 6465, 6513,  578
5980, 6465, 6466, 6514, 6513
5981, 6466, 6467, 6515, 6514
5982, 6467, 6468, 6516, 6515
5983, 6468, 6469, 6517, 6516
5984, 6469, 6470, 6518, 6517
5985, 6470, 6471, 6519, 6518
5986, 6471, 6472, 6520, 6519
5987, 6472, 6473, 6521, 6520
5988, 6473, 6474, 6522, 6521
5989, 6474, 6475, 6523, 6522
5990, 6475, 6476, 6524, 6523
5991, 6476, 6477, 6525, 6524
5992, 6477, 6478, 6526, 6525
5993, 6478, 6479, 6527, 6526
5994, 6479, 6480, 6528, 6527
5995, 6480, 6481, 6529, 6528
5996, 6481, 6482, 6530, 6529
5997, 6482, 6483, 6531, 6530
5998, 6483, 6484, 6532, 6531
5999, 6484, 6485, 6533, 6532
6000, 6485, 6486, 6534, 6533
6001, 6486, 6487, 6535, 6534
6002, 6487, 6488, 6536, 6535
6003, 6488, 6489, 6537, 6536
6004, 6489, 6490, 6538, 6537
6005, 6490, 6491, 6539, 6538
6006, 6491, 6492, 6540, 6539
6007, 6492, 6493, 6541, 6540
6008, 6493, 6494, 6542, 6541
6009, 6494, 6495, 6543, 6542
6010, 6495, 6496, 6544, 6543
6011, 6496, 6497, 6545, 6544
6012, 6497, 6498, 6546, 6545
6013, 6498, 6499, 6547, 6546
6014, 6499, 6500, 6548, 6547
6015, 6500, 6501, 6549, 6548
6016, 6501, 6502, 6550, 6549
6017, 6502, 6503, 6551, 6550
6018, 6503, 6504, 6552, 6551
6019, 6504, 6505, 6553, 6552
6020, 6505, 6506, 6554, 6553
6021, 6506, 6507, 6555, 6554
6022, 6507, 6508, 6556, 6555
6023, 6508, 6509, 6557, 6556
6024, 6509, 6510, 6558, 6557
6025, 6510, 6511, 6559, 6558
6026, 6511, 6512, 6560, 6559
6027, 6512,  486,  487, 6560
6028,  578, 6513, 6561,  577
6029, 6513, 6514, 6562, 6561
6030, 6514, 6515, 6563, 6562
6031, 6515, 6516, 6564, 6563
6032, 6516, 6517, 6565, 6564
6033, 6517, 6518, 6566, 6565
6034, 6518, 6519, 6567, 6566
6035, 6519, 6520, 6568, 6567
6036, 6520, 6521, 6569, 6568
6037, 6521, 6522, 6570, 6569
6038, 6522, 6523, 6571, 6570
6039, 6523, 6524, 6572, 6571
6040, 6524, 6525, 6573, 6572
6041, 6525, 6526, 6574, 6573
6042, 6526, 6527, 6575, 6574
6043, 6527, 6528, 6576, 6575
6044, 6528, 6529, 6577, 6576
6045, 6529, 6530, 6578, 6577
6046, 6530, 6531, 6579, 6578
6047, 6531, 6532, 6580, 6579
6048, 6532, 6533, 6581, 6580
6049, 6533, 6534, 6582, 6581
6050, 6534, 6535, 6583, 6582
6051, 6535, 6536, 6584, 6583
6052, 6536, 6537, 6585, 6584
6053, 6537, 6538, 6586, 6585
6054, 6538, 6539, 6587, 6586
6055, 6539, 6540, 6588, 6587
6056, 6540, 6541, 6589, 6588
6057, 6541, 6542, 6590, 6589
6058, 6542, 6543, 6591, 6590
6059, 6543, 6544, 6592, 6591
6060, 6544, 6545, 6593, 6592
6061, 6545, 6546, 6594, 6593
6062, 6546, 6547, 6595, 6594
6063, 6547, 6548, 6596, 6595
6064, 6548, 6549, 6597, 6596
6065, 6549, 6550, 6598, 6597
6066, 6550, 6551, 6599, 6598
6067, 6551, 6552, 6600, 6599
6068, 6552, 6553, 6601, 6600
6069, 6553, 6554, 6602, 6601
6070, 6554, 6555, 6603, 6602
6071, 6555, 6556, 6604, 6603
6072, 6556, 6557, 6605, 6604
6073, 6557, 6558, 6606, 6605
6074, 6558, 6559, 6607, 6606
6075, 6559, 6560, 6608, 6607
6076, 6560,  487,  488, 6608
6077,  577, 6561, 6609,  576
6078, 6561, 6562, 6610, 6609
6079, 6562, 6563, 6611, 6610
6080, 6563, 6564, 6612, 6611
6081, 6564, 6565, 6613, 6612
6082, 6565, 6566, 6614, 6613
6083, 6566, 6567, 6615, 6614
6084, 6567, 6568, 6616, 6615
6085, 6568, 6569, 6617, 6616
6086, 6569, 6570, 6618, 6617
6087, 6570, 6571, 6619, 6618
6088, 6571, 6572, 6620, 6619
6089, 6572, 6573, 6621, 6620
6090, 6573, 6574, 6622, 6621
6091, 6574, 6575, 6623, 6622
6092, 6575, 6576, 6624, 6623
6093, 6576, 6577, 6625, 6624
6094, 6577, 6578, 6626, 6625
6095, 6578, 6579, 6627, 6626
6096, 6579, 6580, 6628, 6627
6097, 6580, 6581, 6629, 6628
6098, 6581, 6582, 6630, 6629
6099, 6582, 6583, 6631, 6630
6100, 6583, 6584, 6632, 6631
6101, 6584, 6585, 6633, 6632
6102, 6585, 6586, 6634, 6633
6103, 6586, 6587, 6635, 6634
6104, 6587, 6588, 6636, 6635
6105, 6588, 6589, 6637, 6636
6106, 6589, 6590, 6638, 6637
6107, 6590, 6591, 6639, 6638
6108, 6591, 6592, 6640, 6639
6109, 6592, 6593, 6641, 6640
6110, 6593, 6594, 6642, 6641
6111, 6594, 6595, 6643, 6642
6112, 6595, 6596, 6644, 6643
6113, 6596, 6597, 6645, 6644
6114, 6597, 6598, 6646, 6645
6115, 6598, 6599, 6647, 6646
6116, 6599, 6600, 6648, 6647
6117, 6600, 6601, 6649, 6648
6118, 6601, 6602, 6650, 6649
6119, 6602, 6603, 6651, 6650
6120, 6603, 6604, 6652, 6651
6121, 6604, 6605, 6653, 6652
6122, 6605, 6606, 6654, 6653
6123, 6606, 6607, 6655, 6654
6124, 6607, 6608, 6656, 6655
6125, 6608,  488,  489, 6656
6126,  576, 6609, 6657,  575
6127, 6609, 6610, 6658, 6657
6128, 6610, 6611, 6659, 6658
6129, 6611, 6612, 6660, 6659
6130, 6612, 6613, 6661, 6660
6131, 6613, 6614, 6662, 6661
6132, 6614, 6615, 6663, 6662
6133, 6615, 6616, 6664, 6663
6134, 6616, 6617, 6665, 6664
6135, 6617, 6618, 6666, 6665
6136, 6618, 6619, 6667, 6666
6137, 6619, 6620, 6668, 6667
6138, 6620, 6621, 6669, 6668
6139, 6621, 6622, 6670, 6669
6140, 6622, 6623, 6671, 6670
6141, 6623, 6624, 6672, 6671
6142, 6624, 6625, 6673, 6672
6143, 6625, 6626, 6674, 6673
6144, 6626, 6627, 6675, 6674
6145, 6627, 6628, 6676, 6675
6146, 6628, 6629, 6677, 6676
6147, 6629, 6630, 6678, 6677
6148, 6630, 6631, 6679, 6678
6149, 6631, 6632, 6680, 6679
6150, 6632, 6633, 6681, 6680
6151, 6633, 6634, 6682, 6681
6152, 6634, 6635, 6683, 6682
6153, 6635, 6636, 6684, 6683
6154, 6636, 6637, 6685, 6684
6155, 6637, 6638, 6686, 6685
6156, 6638, 6639, 6687, 6686
6157, 6639, 6640, 6688, 6687
6158, 6640, 6641, 6689, 6688
6159, 6641, 6642, 6690, 6689
6160, 6642, 6643, 6691, 6690
6161, 6643, 6644, 6692, 6691
6162, 6644, 6645, 6693, 6692
6163, 6645, 6646, 6694, 6693
6164, 6646, 6647, 6695, 6694
6165, 6647, 6648, 6696, 6695
6166, 6648, 6649, 6697, 6696
6167, 6649, 6650, 6698, 6697
6168, 6650, 6651, 6699, 6698
6169, 6651, 6652, 6700, 6699
6170, 6652, 6653, 6701, 6700
6171, 6653, 6654, 6702, 6701
6172, 6654, 6655, 6703, 6702
6173, 6655, 6656, 6704, 6703
6174, 6656,  489,  490, 6704
6175,  575, 6657, 6705,  574
6176, 6657, 6658, 6706, 6705
6177, 6658, 6659, 6707, 6706
6178, 6659, 6660, 6708, 6707
6179, 6660, 6661, 6709, 6708
6180, 6661, 6662, 6710, 6709
6181, 6662, 6663, 6711, 6710
6182, 6663, 6664, 6712, 6711
6183, 6664, 6665, 6713, 6712
6184, 6665, 6666, 6714, 6713
6185, 6666, 6667, 6715, 6714
6186, 6667, 6668, 6716, 6715
6187, 6668, 6669, 6717, 6716
6188, 6669, 6670, 6718, 6717
6189, 6670, 6671, 6719, 6718
6190, 6671, 6672, 6720, 6719
6191, 6672, 6673, 6721, 6720
6192, 6673, 6674, 6722, 6721
6193, 6674, 6675, 6723, 6722
6194, 6675, 6676, 6724, 6723
6195, 6676, 6677, 6725, 6724
6196, 6677, 6678, 6726, 6725
6197, 6678, 6679, 6727, 6726
6198, 6679, 6680, 6728, 6727
6199, 6680, 6681, 6729, 6728
6200, 6681, 6682, 6730, 6729
6201, 6682, 6683, 6731, 6730
6202, 6683, 6684, 6732, 6731
6203, 6684, 6685, 6733, 6732
6204, 6685, 6686, 6734, 6733
6205, 6686, 6687, 6735, 6734
6206, 6687, 6688, 6736, 6735
6207, 6688, 6689, 6737, 6736
6208, 6689, 6690, 6738, 6737
6209, 6690, 6691, 6739, 6738
6210, 6691, 6692, 6740, 6739
6211, 6692, 6693, 6741, 6740
6212, 6693, 6694, 6742, 6741
6213, 6694, 6695, 6743, 6742
6214, 6695, 6696, 6744, 6743
6215, 6696, 6697, 6745, 6744
6216, 6697, 6698, 6746, 6745
6217, 6698, 6699, 6747, 6746
6218, 6699, 6700, 6748, 6747
6219, 6700, 6701, 6749, 6748
6220, 6701, 6702, 6750, 6749
6221, 6702, 6703, 6751, 6750
6222, 6703, 6704, 6752, 6751
6223, 6704,  490,  491, 6752
6224,  574, 6705, 6753,  573
6225, 6705, 6706, 6754, 6753
6226, 6706, 6707, 6755, 6754
6227, 6707, 6708, 6756, 6755
6228, 6708, 6709, 6757, 6756
6229, 6709, 6710, 6758, 6757
6230, 6710, 6711, 6759, 6758
6231, 6711, 6712, 6760, 6759
6232, 6712, 6713, 6761, 6760
6233, 6713, 6714, 6762, 6761
6234, 6714, 6715, 6763, 6762
6235, 6715, 6716, 6764, 6763
6236, 6716, 6717, 6765, 6764
6237, 6717, 6718, 6766, 6765
6238, 6718, 6719, 6767, 6766
6239, 6719, 6720, 6768, 6767
6240, 6720, 6721, 6769, 6768
6241, 6721, 6722, 6770, 6769
6242, 6722, 6723, 6771, 6770
6243, 6723, 6724, 6772, 6771
6244, 6724, 6725, 6773, 6772
6245, 6725, 6726, 6774, 6773
6246, 6726, 6727, 6775, 6774
6247, 6727, 6728, 6776, 6775
6248, 6728, 6729, 6777, 6776
6249, 6729, 6730, 6778, 6777
6250, 6730, 6731, 6779, 6778
6251, 6731, 6732, 6780, 6779
6252, 6732, 6733, 6781, 6780
6253, 6733, 6734, 6782, 6781
6254, 6734, 6735, 6783, 6782
6255, 6735, 6736, 6784, 6783
6256, 6736, 6737, 6785, 6784
6257, 6737, 6738, 6786, 6785
6258, 6738, 6739, 6787, 6786
6259, 6739, 6740, 6788, 6787
6260, 6740, 6741, 6789, 6788
6261, 6741, 6742, 6790, 6789
6262, 6742, 6743, 6791, 6790
6263, 6743, 6744, 6792, 6791
6264, 6744, 6745, 6793, 6792
6265, 6745, 6746, 6794, 6793
6266, 6746, 6747, 6795, 6794
6267, 6747, 6748, 6796, 6795
6268, 6748, 6749, 6797, 6796
6269, 6749, 6750, 6798, 6797
6270, 6750, 6751, 6799, 6798
6271, 6751, 6752, 6800, 6799
6272, 6752,  491,  492, 6800
6273,  573, 6753, 6801,  572
6274, 6753, 6754, 6802, 6801
6275, 6754, 6755, 6803, 6802
6276, 6755, 6756, 6804, 6803
6277, 6756, 6757, 6805, 6804
6278, 6757, 6758, 6806, 6805
6279, 6758, 6759, 6807, 6806
6280, 6759, 6760, 6808, 6807
6281, 6760, 6761, 6809, 6808
6282, 6761, 6762, 6810, 6809
6283, 6762, 6763, 6811, 6810
6284, 6763, 6764, 6812, 6811
6285, 6764, 6765, 6813, 6812
6286, 6765, 6766, 6814, 6813
6287, 6766, 6767, 6815, 6814
6288, 6767, 6768, 6816, 6815
6289, 6768, 6769, 6817, 6816
6290, 6769, 6770, 6818, 6817
6291, 6770, 6771, 6819, 6818
6292, 6771, 6772, 6820, 6819
6293, 6772, 6773, 6821, 6820
6294, 6773, 6774, 6822, 6821
6295, 6774, 6775, 6823, 6822
6296, 6775, 6776, 6824, 6823
6297, 6776, 6777, 6825, 6824
6298, 6777, 6778, 6826, 6825
6299, 6778, 6779, 6827, 6826
6300, 6779, 6780, 6828, 6827
6301, 6780, 6781, 6829, 6828
6302, 6781, 6782, 6830, 6829
6303, 6782, 6783, 6831, 6830
6304, 6783, 6784, 6832, 6831
6305, 6784, 6785, 6833, 6832
6306, 6785, 6786, 6834, 6833
6307, 6786, 6787, 6835, 6834
6308, 6787, 6788, 6836, 6835
6309, 6788, 6789, 6837, 6836
6310, 6789, 6790, 6838, 6837
6311, 6790, 6791, 6839, 6838
6312, 6791, 6792, 6840, 6839
6313, 6792, 6793, 6841, 6840
6314, 6793, 6794, 6842, 6841
6315, 6794, 6795, 6843, 6842
6316, 6795, 6796, 6844, 6843
6317, 6796, 6797, 6845, 6844
6318, 6797, 6798, 6846, 6845
6319, 6798, 6799, 6847, 6846
6320, 6799, 6800, 6848, 6847
6321, 6800,  492,  493, 6848
6322,  572, 6801, 6849,  571
6323, 6801, 6802, 6850, 6849
6324, 6802, 6803, 6851, 6850
6325, 6803, 6804, 6852, 6851
6326, 6804, 6805, 6853, 6852
6327, 6805, 6806, 6854, 6853
6328, 6806, 6807, 6855, 6854
6329, 6807, 6808, 6856, 6855
6330, 6808, 6809, 6857, 6856
6331, 6809, 6810, 6858, 6857
6332, 6810, 6811, 6859, 6858
6333, 6811, 6812, 6860, 6859
6334, 6812, 6813, 6861, 6860
6335, 6813, 6814, 6862, 6861
6336, 6814, 6815, 6863, 6862
6337, 6815, 6816, 6864, 6863
6338, 6816, 6817, 6865, 6864
6339, 6817, 6818, 6866, 6865
6340, 6818, 6819, 6867, 6866
6341, 6819, 6820, 6868, 6867
6342, 6820, 6821, 6869, 6868
6343, 6821, 6822, 6870, 6869
6344, 6822, 6823, 6871, 6870
6345, 6823, 6824, 6872, 6871
6346, 6824, 6825, 6873, 6872
6347, 6825, 6826, 6874, 6873
6348, 6826, 6827, 6875, 6874
6349, 6827, 6828, 6876, 6875
6350, 6828, 6829, 6877, 6876
6351, 6829, 6830, 6878, 6877
6352, 6830, 6831, 6879, 6878
6353, 6831, 6832, 6880, 6879
6354, 6832, 6833, 6881, 6880
6355, 6833, 6834, 6882, 6881
6356, 6834, 6835, 6883, 6882
6357, 6835, 6836, 6884, 6883
6358, 6836, 6837, 6885, 6884
6359, 6837, 6838, 6886, 6885
6360, 6838, 6839, 6887, 6886
6361, 6839, 6840, 6888, 6887
6362, 6840, 6841, 6889, 6888
6363, 6841, 6842, 6890, 6889
6364, 6842, 6843, 6891, 6890
6365, 6843, 6844, 6892, 6891
6366, 6844, 6845, 6893, 6892
6367, 6845, 6846, 6894, 6893
6368, 6846, 6847, 6895, 6894
6369, 6847, 6848, 6896, 6895
6370, 6848,  493,  494, 6896
6371,  571, 6849, 6897,  570
6372, 6849, 6850, 6898, 6897
6373, 6850, 6851, 6899, 6898
6374, 6851, 6852, 6900, 6899
6375, 6852, 6853, 6901, 6900
6376, 6853, 6854, 6902, 6901
6377, 6854, 6855, 6903, 6902
6378, 6855, 6856, 6904, 6903
6379, 6856, 6857, 6905, 6904
6380, 6857, 6858, 6906, 6905
6381, 6858, 6859, 6907, 6906
6382, 6859, 6860, 6908, 6907
6383, 6860, 6861, 6909, 6908
6384, 6861, 6862, 6910, 6909
6385, 6862, 6863, 6911, 6910
6386, 6863, 6864, 6912, 6911
6387, 6864, 6865, 6913, 6912
6388, 6865, 6866, 6914, 6913
6389, 6866, 6867, 6915, 6914
6390, 6867, 6868, 6916, 6915
6391, 6868, 6869, 6917, 6916
6392, 6869, 6870, 6918, 6917
6393, 6870, 6871, 6919, 6918
6394, 6871, 6872, 6920, 6919
6395, 6872, 6873, 6921, 6920
6396, 6873, 6874, 6922, 6921
6397, 6874, 6875, 6923, 6922
6398, 6875, 6876, 6924, 6923
6399, 6876, 6877, 6925, 6924
6400, 6877, 6878, 6926, 6925
6401, 6878, 6879, 6927, 6926
6402, 6879, 6880, 6928, 6927
6403, 6880, 6881, 6929, 6928
6404, 6881, 6882, 6930, 6929
6405, 6882, 6883, 6931, 6930
6406, 6883, 6884, 6932, 6931
6407, 6884, 6885, 6933, 6932
6408, 6885, 6886, 6934, 6933
6409, 6886, 6887, 6935, 6934
6410, 6887, 6888, 6936, 6935
6411, 6888, 6889, 6937, 6936
6412, 6889, 6890, 6938, 6937
6413, 6890, 6891, 6939, 6938
6414, 6891, 6892, 6940, 6939
6415, 6892, 6893, 6941, 6940
6416, 6893, 6894, 6942, 6941
6417, 6894, 6895, 6943, 6942
6418, 6895, 6896, 6944, 6943
6419, 6896,  494,  495, 6944
6420,  570, 6897, 6945,  569
6421, 6897, 6898, 6946, 6945
6422, 6898, 6899, 6947, 6946
6423, 6899, 6900, 6948, 6947
6424, 6900, 6901, 6949, 6948
6425, 6901, 6902, 6950, 6949
6426, 6902, 6903, 6951, 6950
6427, 6903, 6904, 6952, 6951
6428, 6904, 6905, 6953, 6952
6429, 6905, 6906, 6954, 6953
6430, 6906, 6907, 6955, 6954
6431, 6907, 6908, 6956, 6955
6432, 6908, 6909, 6957, 6956
6433, 6909, 6910, 6958, 6957
6434, 6910, 6911, 6959, 6958
6435, 6911, 6912, 6960, 6959
6436, 6912, 6913, 6961, 6960
6437, 6913, 6914, 6962, 6961
6438, 6914, 6915, 6963, 6962
6439, 6915, 6916, 6964, 6963
6440, 6916, 6917, 6965, 6964
6441, 6917, 6918, 6966, 6965
6442, 6918, 6919, 6967, 6966
6443, 6919, 6920, 6968, 6967
6444, 6920, 6921, 6969, 6968
6445, 6921, 6922, 6970, 6969
6446, 6922, 6923, 6971, 6970
6447, 6923, 6924, 6972, 6971
6448, 6924, 6925, 6973, 6972
6449, 6925, 6926, 6974, 6973
6450, 6926, 6927, 6975, 6974
6451, 6927, 6928, 6976, 6975
6452, 6928, 6929, 6977, 6976
6453, 6929, 6930, 6978, 6977
6454, 6930, 6931, 6979, 6978
6455, 6931, 6932, 6980, 6979
6456, 6932, 6933, 6981, 6980
6457, 6933, 6934, 6982, 6981
6458, 6934, 6935, 6983, 6982
6459, 6935, 6936, 6984, 6983
6460, 6936, 6937, 6985, 6984
6461, 6937, 6938, 6986, 6985
6462, 6938, 6939, 6987, 6986
6463, 6939, 6940, 6988, 6987
6464, 6940, 6941, 6989, 6988
6465, 6941, 6942, 6990, 6989
6466, 6942, 6943, 6991, 6990
6467, 6943, 6944, 6992, 6991
6468, 6944,  495,  496, 6992
6469,  569, 6945, 6993,  568
6470, 6945, 6946, 6994, 6993
6471, 6946, 6947, 6995, 6994
6472, 6947, 6948, 6996, 6995
6473, 6948, 6949, 6997, 6996
6474, 6949, 6950, 6998, 6997
6475, 6950, 6951, 6999, 6998
6476, 6951, 6952, 7000, 6999
6477, 6952, 6953, 7001, 7000
6478, 6953, 6954, 7002, 7001
6479, 6954, 6955, 7003, 7002
6480, 6955, 6956, 7004, 7003
6481, 6956, 6957, 7005, 7004
6482, 6957, 6958, 7006, 7005
6483, 6958, 6959, 7007, 7006
6484, 6959, 6960, 7008, 7007
6485, 6960, 6961, 7009, 7008
6486, 6961, 6962, 7010, 7009
6487, 6962, 6963, 7011, 7010
6488, 6963, 6964, 7012, 7011
6489, 6964, 6965, 7013, 7012
6490, 6965, 6966, 7014, 7013
6491, 6966, 6967, 7015, 7014
6492, 6967, 6968, 7016, 7015
6493, 6968, 6969, 7017, 7016
6494, 6969, 6970, 7018, 7017
6495, 6970, 6971, 7019, 7018
6496, 6971, 6972, 7020, 7019
6497, 6972, 6973, 7021, 7020
6498, 6973, 6974, 7022, 7021
6499, 6974, 6975, 7023, 7022
6500, 6975, 6976, 7024, 7023
6501, 6976, 6977, 7025, 7024
6502, 6977, 6978, 7026, 7025
6503, 6978, 6979, 7027, 7026
6504, 6979, 6980, 7028, 7027
6505, 6980, 6981, 7029, 7028
6506, 6981, 6982, 7030, 7029
6507, 6982, 6983, 7031, 7030
6508, 6983, 6984, 7032, 7031
6509, 6984, 6985, 7033, 7032
6510, 6985, 6986, 7034, 7033
6511, 6986, 6987, 7035, 7034
6512, 6987, 6988, 7036, 7035
6513, 6988, 6989, 7037, 7036
6514, 6989, 6990, 7038, 7037
6515, 6990, 6991, 7039, 7038
6516, 6991, 6992, 7040, 7039
6517, 6992,  496,  497, 7040
6518,  568, 6993, 7041,  567
6519, 6993, 6994, 7042, 7041
6520, 6994, 6995, 7043, 7042
6521, 6995, 6996, 7044, 7043
6522, 6996, 6997, 7045, 7044
6523, 6997, 6998, 7046, 7045
6524, 6998, 6999, 7047, 7046
6525, 6999, 7000, 7048, 7047
6526, 7000, 7001, 7049, 7048
6527, 7001, 7002, 7050, 7049
6528, 7002, 7003, 7051, 7050
6529, 7003, 7004, 7052, 7051
6530, 7004, 7005, 7053, 7052
6531, 7005, 7006, 7054, 7053
6532, 7006, 7007, 7055, 7054
6533, 7007, 7008, 7056, 7055
6534, 7008, 7009, 7057, 7056
6535, 7009, 7010, 7058, 7057
6536, 7010, 7011, 7059, 7058
6537, 7011, 7012, 7060, 7059
6538, 7012, 7013, 7061, 7060
6539, 7013, 7014, 7062, 7061
6540, 7014, 7015, 7063, 7062
6541, 7015, 7016, 7064, 7063
6542, 7016, 7017, 7065, 7064
6543, 7017, 7018, 7066, 7065
6544, 7018, 7019, 7067, 7066
6545, 7019, 7020, 7068, 7067
6546, 7020, 7021, 7069, 7068
6547, 7021, 7022, 7070, 7069
6548, 7022, 7023, 7071, 7070
6549, 7023, 7024, 7072, 7071
6550, 7024, 7025, 7073, 7072
6551, 7025, 7026, 7074, 7073
6552, 7026, 7027, 7075, 7074
6553, 7027, 7028, 7076, 7075
6554, 7028, 7029, 7077, 7076
6555, 7029, 7030, 7078, 7077
6556, 7030, 7031, 7079, 7078
6557, 7031, 7032, 7080, 7079
6558, 7032, 7033, 7081, 7080
6559, 7033, 7034, 7082, 7081
6560, 7034, 7035, 7083, 7082
6561, 7035, 7036, 7084, 7083
6562, 7036, 7037, 7085, 7084
6563, 7037, 7038, 7086, 7085
6564, 7038, 7039, 7087, 7086
6565, 7039, 7040, 7088, 7087
6566, 7040,  497,  498, 7088
6567,  567, 7041, 7089,  566
6568, 7041, 7042, 7090, 7089
6569, 7042, 7043, 7091, 7090
6570, 7043, 7044, 7092, 7091
6571, 7044, 7045, 7093, 7092
6572, 7045, 7046, 7094, 7093
6573, 7046, 7047, 7095, 7094
6574, 7047, 7048, 7096, 7095
6575, 7048, 7049, 7097, 7096
6576, 7049, 7050, 7098, 7097
6577, 7050, 7051, 7099, 7098
6578, 7051, 7052, 7100, 7099
6579, 7052, 7053, 7101, 7100
6580, 7053, 7054, 7102, 7101
6581, 7054, 7055, 7103, 7102
6582, 7055, 7056, 7104, 7103
6583, 7056, 7057, 7105, 7104
6584, 7057, 7058, 7106, 7105
6585, 7058, 7059, 7107, 7106
6586, 7059, 7060, 7108, 7107
6587, 7060, 7061, 7109, 7108
6588, 7061, 7062, 7110, 7109
6589, 7062, 7063, 7111, 7110
6590, 7063, 7064, 7112, 7111
6591, 7064, 7065, 7113, 7112
6592, 7065, 7066, 7114, 7113
6593, 7066, 7067, 7115, 7114
6594, 7067, 7068, 7116, 7115
6595, 7068, 7069, 7117, 7116
6596, 7069, 7070, 7118, 7117
6597, 7070, 7071, 7119, 7118
6598, 7071, 7072, 7120, 7119
6599, 7072, 7073, 7121, 7120
6600, 7073, 7074, 7122, 7121
6601, 7074, 7075, 7123, 7122
6602, 7075, 7076, 7124, 7123
6603, 7076, 7077, 7125, 7124
6604, 7077, 7078, 7126, 7125
6605, 7078, 7079, 7127, 7126
6606, 7079, 7080, 7128, 7127
6607, 7080, 7081, 7129, 7128
6608, 7081, 7082, 7130, 7129
6609, 7082, 7083, 7131, 7130
6610, 7083, 7084, 7132, 7131
6611, 7084, 7085, 7133, 7132
6612, 7085, 7086, 7134, 7133
6613, 7086, 7087, 7135, 7134
6614, 7087, 7088, 7136, 7135
6615, 7088,  498,  499, 7136
6616,  566, 7089, 7137,  565
6617, 7089, 7090, 7138, 7137
6618, 7090, 7091, 7139, 7138
6619, 7091, 7092, 7140, 7139
6620, 7092, 7093, 7141, 7140
6621, 7093, 7094, 7142, 7141
6622, 7094, 7095, 7143, 7142
6623, 7095, 7096, 7144, 7143
6624, 7096, 7097, 7145, 7144
6625, 7097, 7098, 7146, 7145
6626, 7098, 7099, 7147, 7146
6627, 7099, 7100, 7148, 7147
6628, 7100, 7101, 7149, 7148
6629, 7101, 7102, 7150, 7149
6630, 7102, 7103, 7151, 7150
6631, 7103, 7104, 7152, 7151
6632, 7104, 7105, 7153, 7152
6633, 7105, 7106, 7154, 7153
6634, 7106, 7107, 7155, 7154
6635, 7107, 7108, 7156, 7155
6636, 7108, 7109, 7157, 7156
6637, 7109, 7110, 7158, 7157
6638, 7110, 7111, 7159, 7158
6639, 7111, 7112, 7160, 7159
6640, 7112, 7113, 7161, 7160
6641, 7113, 7114, 7162, 7161
6642, 7114, 7115, 7163, 7162
6643, 7115, 7116, 7164, 7163
6644, 7116, 7117, 7165, 7164
6645, 7117, 7118, 7166, 7165
6646, 7118, 7119, 7167, 7166
6647, 7119, 7120, 7168, 7167
6648, 7120, 7121, 7169, 7168
6649, 7121, 7122, 7170, 7169
6650, 7122, 7123, 7171, 7170
6651, 7123, 7124, 7172, 7171
6652, 7124, 7125, 7173, 7172
6653, 7125, 7126, 7174, 7173
6654, 7126, 7127, 7175, 7174
6655, 7127, 7128, 7176, 7175
6656, 7128, 7129, 7177, 7176
6657, 7129, 7130, 7178, 7177
6658, 7130, 7131, 7179, 7178
6659, 7131, 7132, 7180, 7179
6660, 7132, 7133, 7181, 7180
6661, 7133, 7134, 7182, 7181
6662, 7134, 7135, 7183, 7182
6663, 7135, 7136, 7184, 7183
6664, 7136,  499,  500, 7184
6665,  565, 7137, 7185,  564
6666, 7137, 7138, 7186, 7185
6667, 7138, 7139, 7187, 7186
6668, 7139, 7140, 7188, 7187
6669, 7140, 7141, 7189, 7188
6670, 7141, 7142, 7190, 7189
6671, 7142, 7143, 7191, 7190
6672, 7143, 7144, 7192, 7191
6673, 7144, 7145, 7193, 7192
6674, 7145, 7146, 7194, 7193
6675, 7146, 7147, 7195, 7194
6676, 7147, 7148, 7196, 7195
6677, 7148, 7149, 7197, 7196
6678, 7149, 7150, 7198, 7197
6679, 7150, 7151, 7199, 7198
6680, 7151, 7152, 7200, 7199
6681, 7152, 7153, 7201, 7200
6682, 7153, 7154, 7202, 7201
6683, 7154, 7155, 7203, 7202
6684, 7155, 7156, 7204, 7203
6685, 7156, 7157, 7205, 7204
6686, 7157, 7158, 7206, 7205
6687, 7158, 7159, 7207, 7206
6688, 7159, 7160, 7208, 7207
6689, 7160, 7161, 7209, 7208
6690, 7161, 7162, 7210, 7209
6691, 7162, 7163, 7211, 7210
6692, 7163, 7164, 7212, 7211
6693, 7164, 7165, 7213, 7212
6694, 7165, 7166, 7214, 7213
6695, 7166, 7167, 7215, 7214
6696, 7167, 7168, 7216, 7215
6697, 7168, 7169, 7217, 7216
6698, 7169, 7170, 7218, 7217
6699, 7170, 7171, 7219, 7218
6700, 7171, 7172, 7220, 7219
6701, 7172, 7173, 7221, 7220
6702, 7173, 7174, 7222, 7221
6703, 7174, 7175, 7223, 7222
6704, 7175, 7176, 7224, 7223
6705, 7176, 7177, 7225, 7224
6706, 7177, 7178, 7226, 7225
6707, 7178, 7179, 7227, 7226
6708, 7179, 7180, 7228, 7227
6709, 7180, 7181, 7229, 7228
6710, 7181, 7182, 7230, 7229
6711, 7182, 7183, 7231, 7230
6712, 7183, 7184, 7232, 7231
6713, 7184,  500,  501, 7232
6714,  564, 7185, 7233,  563
6715, 7185, 7186, 7234, 7233
6716, 7186, 7187, 7235, 7234
6717, 7187, 7188, 7236, 7235
6718, 7188, 7189, 7237, 7236
6719, 7189, 7190, 7238, 7237
6720, 7190, 7191, 7239, 7238
6721, 7191, 7192, 7240, 7239
6722, 7192, 7193, 7241, 7240
6723, 7193, 7194, 7242, 7241
6724, 7194, 7195, 7243, 7242
6725, 7195, 7196, 7244, 7243
6726, 7196, 7197, 7245, 7244
6727, 7197, 7198, 7246, 7245
6728, 7198, 7199, 7247, 7246
6729, 7199, 7200, 7248, 7247
6730, 7200, 7201, 7249, 7248
6731, 7201, 7202, 7250, 7249
6732, 7202, 7203, 7251, 7250
6733, 7203, 7204, 7252, 7251
6734, 7204, 7205, 7253, 7252
6735, 7205, 7206, 7254, 7253
6736, 7206, 7207, 7255, 7254
6737, 7207, 7208, 7256, 7255
6738, 7208, 7209, 7257, 7256
6739, 7209, 7210, 7258, 7257
6740, 7210, 7211, 7259, 7258
6741, 7211, 7212, 7260, 7259
6742, 7212, 7213, 7261, 7260
6743, 7213, 7214, 7262, 7261
6744, 7214, 7215, 7263, 7262
6745, 7215, 7216, 7264, 7263
6746, 7216, 7217, 7265, 7264
6747, 7217, 7218, 7266, 7265
6748, 7218, 7219, 7267, 7266
6749, 7219, 7220, 7268, 7267
6750, 7220, 7221, 7269, 7268
6751, 7221, 7222, 7270, 7269
6752, 7222, 7223, 7271, 7270
6753, 7223, 7224, 7272, 7271
6754, 7224, 7225, 7273, 7272
6755, 7225, 7226, 7274, 7273
6756, 7226, 7227, 7275, 7274
6757, 7227, 7228, 7276, 7275
6758, 7228, 7229, 7277, 7276
6759, 7229, 7230, 7278, 7277
6760, 7230, 7231, 7279, 7278
6761, 7231, 7232, 7280, 7279
6762, 7232,  501,  502, 7280
6763,  563, 7233, 7281,  562
6764, 7233, 7234, 7282, 7281
6765, 7234, 7235, 7283, 7282
6766, 7235, 7236, 7284, 7283
6767, 7236, 7237, 7285, 7284
6768, 7237, 7238, 7286, 7285
6769, 7238, 7239, 7287, 7286
6770, 7239, 7240, 7288, 7287
6771, 7240, 7241, 7289, 7288
6772, 7241, 7242, 7290, 7289
6773, 7242, 7243, 7291, 7290
6774, 7243, 7244, 7292, 7291
6775, 7244, 7245, 7293, 7292
6776, 7245, 7246, 7294, 7293
6777, 7246, 7247, 7295, 7294
6778, 7247, 7248, 7296, 7295
6779, 7248, 7249, 7297, 7296
6780, 7249, 7250, 7298, 7297
6781, 7250, 7251, 7299, 7298
6782, 7251, 7252, 7300, 7299
6783, 7252, 7253, 7301, 7300
6784, 7253, 7254, 7302, 7301
6785, 7254, 7255, 7303, 7302
6786, 7255, 7256, 7304, 7303
6787, 7256, 7257, 7305, 7304
6788, 7257, 7258, 7306, 7305
6789, 7258, 7259, 7307, 7306
6790, 7259, 7260, 7308, 7307
6791, 7260, 7261, 7309, 7308
6792, 7261, 7262, 7310, 7309
6793, 7262, 7263, 7311, 7310
6794, 7263, 7264, 7312, 7311
6795, 7264, 7265, 7313, 7312
6796, 7265, 7266, 7314, 7313
6797, 7266, 7267, 7315, 7314
6798, 7267, 7268, 7316, 7315
6799, 7268, 7269, 7317, 7316
6800, 7269, 7270, 7318, 7317
6801, 7270, 7271, 7319, 7318
6802, 7271, 7272, 7320, 7319
6803, 7272, 7273, 7321, 7320
6804, 7273, 7274, 7322, 7321
6805, 7274, 7275, 7323, 7322
6806, 7275, 7276, 7324, 7323
6807, 7276, 7277, 7325, 7324
6808, 7277, 7278, 7326, 7325
6809, 7278, 7279, 7327, 7326
6810, 7279, 7280, 7328, 7327
6811, 7280,  502,  503, 7328
6812,  562, 7281, 7329,  561
6813, 7281, 7282, 7330, 7329
6814, 7282, 7283, 7331, 7330
6815, 7283, 7284, 7332, 7331
6816, 7284, 7285, 7333, 7332
6817, 7285, 7286, 7334, 7333
6818, 7286, 7287, 7335, 7334
6819, 7287, 7288, 7336, 7335
6820, 7288, 7289, 7337, 7336
6821, 7289, 7290, 7338, 7337
6822, 7290, 7291, 7339, 7338
6823, 7291, 7292, 7340, 7339
6824, 7292, 7293, 7341, 7340
6825, 7293, 7294, 7342, 7341
6826, 7294, 7295, 7343, 7342
6827, 7295, 7296, 7344, 7343
6828, 7296, 7297, 7345, 7344
6829, 7297, 7298, 7346, 7345
6830, 7298, 7299, 7347, 7346
6831, 7299, 7300, 7348, 7347
6832, 7300, 7301, 7349, 7348
6833, 7301, 7302, 7350, 7349
6834, 7302, 7303, 7351, 7350
6835, 7303, 7304, 7352, 7351
6836, 7304, 7305, 7353, 7352
6837, 7305, 7306, 7354, 7353
6838, 7306, 7307, 7355, 7354
6839, 7307, 7308, 7356, 7355
6840, 7308, 7309, 7357, 7356
6841, 7309, 7310, 7358, 7357
6842, 7310, 7311, 7359, 7358
6843, 7311, 7312, 7360, 7359
6844, 7312, 7313, 7361, 7360
6845, 7313, 7314, 7362, 7361
6846, 7314, 7315, 7363, 7362
6847, 7315, 7316, 7364, 7363
6848, 7316, 7317, 7365, 7364
6849, 7317, 7318, 7366, 7365
6850, 7318, 7319, 7367, 7366
6851, 7319, 7320, 7368, 7367
6852, 7320, 7321, 7369, 7368
6853, 7321, 7322, 7370, 7369
6854, 7322, 7323, 7371, 7370
6855, 7323, 7324, 7372, 7371
6856, 7324, 7325, 7373, 7372
6857, 7325, 7326, 7374, 7373
6858, 7326, 7327, 7375, 7374
6859, 7327, 7328, 7376, 7375
6860, 7328,  503,  504, 7376
6861,  561, 7329, 7377,  560
6862, 7329, 7330, 7378, 7377
6863, 7330, 7331, 7379, 7378
6864, 7331, 7332, 7380, 7379
6865, 7332, 7333, 7381, 7380
6866, 7333, 7334, 7382, 7381
6867, 7334, 7335, 7383, 7382
6868, 7335, 7336, 7384, 7383
6869, 7336, 7337, 7385, 7384
6870, 7337, 7338, 7386, 7385
6871, 7338, 7339, 7387, 7386
6872, 7339, 7340, 7388, 7387
6873, 7340, 7341, 7389, 7388
6874, 7341, 7342, 7390, 7389
6875, 7342, 7343, 7391, 7390
6876, 7343, 7344, 7392, 7391
6877, 7344, 7345, 7393, 7392
6878, 7345, 7346, 7394, 7393
6879, 7346, 7347, 7395, 7394
6880, 7347, 7348, 7396, 7395
6881, 7348, 7349, 7397, 7396
6882, 7349, 7350, 7398, 7397
6883, 7350, 7351, 7399, 7398
6884, 7351, 7352, 7400, 7399
6885, 7352, 7353, 7401, 7400
6886, 7353, 7354, 7402, 7401
6887, 7354, 7355, 7403, 7402
6888, 7355, 7356, 7404, 7403
6889, 7356, 7357, 7405, 7404
6890, 7357, 7358, 7406, 7405
6891, 7358, 7359, 7407, 7406
6892, 7359, 7360, 7408, 7407
6893, 7360, 7361, 7409, 7408
6894, 7361, 7362, 7410, 7409
6895, 7362, 7363, 7411, 7410
6896, 7363, 7364, 7412, 7411
6897, 7364, 7365, 7413, 7412
6898, 7365, 7366, 7414, 7413
6899, 7366, 7367, 7415, 7414
6900, 7367, 7368, 7416, 7415
6901, 7368, 7369, 7417, 7416
6902, 7369, 7370, 7418, 7417
6903, 7370, 7371, 7419, 7418
6904, 7371, 7372, 7420, 7419
6905, 7372, 7373, 7421, 7420
6906, 7373, 7374, 7422, 7421
6907, 7374, 7375, 7423, 7422
6908, 7375, 7376, 7424, 7423
6909, 7376,  504,  505, 7424
6910,  560, 7377, 7425,  559
6911, 7377, 7378, 7426, 7425
6912, 7378, 7379, 7427, 7426
6913, 7379, 7380, 7428, 7427
6914, 7380, 7381, 7429, 7428
6915, 7381, 7382, 7430, 7429
6916, 7382, 7383, 7431, 7430
6917, 7383, 7384, 7432, 7431
6918, 7384, 7385, 7433, 7432
6919, 7385, 7386, 7434, 7433
6920, 7386, 7387, 7435, 7434
6921, 7387, 7388, 7436, 7435
6922, 7388, 7389, 7437, 7436
6923, 7389, 7390, 7438, 7437
6924, 7390, 7391, 7439, 7438
6925, 7391, 7392, 7440, 7439
6926, 7392, 7393, 7441, 7440
6927, 7393, 7394, 7442, 7441
6928, 7394, 7395, 7443, 7442
6929, 7395, 7396, 7444, 7443
6930, 7396, 7397, 7445, 7444
6931, 7397, 7398, 7446, 7445
6932, 7398, 7399, 7447, 7446
6933, 7399, 7400, 7448, 7447
6934, 7400, 7401, 7449, 7448
6935, 7401, 7402, 7450, 7449
6936, 7402, 7403, 7451, 7450
6937, 7403, 7404, 7452, 7451
6938, 7404, 7405, 7453, 7452
6939, 7405, 7406, 7454, 7453
6940, 7406, 7407, 7455, 7454
6941, 7407, 7408, 7456, 7455
6942, 7408, 7409, 7457, 7456
6943, 7409, 7410, 7458, 7457
6944, 7410, 7411, 7459, 7458
6945, 7411, 7412, 7460, 7459
6946, 7412, 7413, 7461, 7460
6947, 7413, 7414, 7462, 7461
6948, 7414, 7415, 7463, 7462
6949, 7415, 7416, 7464, 7463
6950, 7416, 7417, 7465, 7464
6951, 7417, 7418, 7466, 7465
6952, 7418, 7419, 7467, 7466
6953, 7419, 7420, 7468, 7467
6954, 7420, 7421, 7469, 7468
6955, 7421, 7422, 7470, 7469
6956, 7422, 7423, 7471, 7470
6957, 7423, 7424, 7472, 7471
6958, 7424,  505,  506, 7472
6959,  559, 7425, 7473,  558
6960, 7425, 7426, 7474, 7473
6961, 7426, 7427, 7475, 7474
6962, 7427, 7428, 7476, 7475
6963, 7428, 7429, 7477, 7476
6964, 7429, 7430, 7478, 7477
6965, 7430, 7431, 7479, 7478
6966, 7431, 7432, 7480, 7479
6967, 7432, 7433, 7481, 7480
6968, 7433, 7434, 7482, 7481
6969, 7434, 7435, 7483, 7482
6970, 7435, 7436, 7484, 7483
6971, 7436, 7437, 7485, 7484
6972, 7437, 7438, 7486, 7485
6973, 7438, 7439, 7487, 7486
6974, 7439, 7440, 7488, 7487
6975, 7440, 7441, 7489, 7488
6976, 7441, 7442, 7490, 7489
6977, 7442, 7443, 7491, 7490
6978, 7443, 7444, 7492, 7491
6979, 7444, 7445, 7493, 7492
6980, 7445, 7446, 7494, 7493
6981, 7446, 7447, 7495, 7494
6982, 7447, 7448, 7496, 7495
6983, 7448, 7449, 7497, 7496
6984, 7449, 7450, 7498, 7497
6985, 7450, 7451, 7499, 7498
6986, 7451, 7452, 7500, 7499
6987, 7452, 7453, 7501, 7500
6988, 7453, 7454, 7502, 7501
6989, 7454, 7455, 7503, 7502
6990, 7455, 7456, 7504, 7503
6991, 7456, 7457, 7505, 7504
6992, 7457, 7458, 7506, 7505
6993, 7458, 7459, 7507, 7506
6994, 7459, 7460, 7508, 7507
6995, 7460, 7461, 7509, 7508
6996, 7461, 7462, 7510, 7509
6997, 7462, 7463, 7511, 7510
6998, 7463, 7464, 7512, 7511
6999, 7464, 7465, 7513, 7512
7000, 7465, 7466, 7514, 7513
7001, 7466, 7467, 7515, 7514
7002, 7467, 7468, 7516, 7515
7003, 7468, 7469, 7517, 7516
7004, 7469, 7470, 7518, 7517
7005, 7470, 7471, 7519, 7518
7006, 7471, 7472, 7520, 7519
7007, 7472,  506,  507, 7520
7008,  558, 7473, 7521,  557
7009, 7473, 7474, 7522, 7521
7010, 7474, 7475, 7523, 7522
7011, 7475, 7476, 7524, 7523
7012, 7476, 7477, 7525, 7524
7013, 7477, 7478, 7526, 7525
7014, 7478, 7479, 7527, 7526
7015, 7479, 7480, 7528, 7527
7016, 7480, 7481, 7529, 7528
7017, 7481, 7482, 7530, 7529
7018, 7482, 7483, 7531, 7530
7019, 7483, 7484, 7532, 7531
7020, 7484, 7485, 7533, 7532
7021, 7485, 7486, 7534, 7533
7022, 7486, 7487, 7535, 7534
7023, 7487, 7488, 7536, 7535
7024, 7488, 7489, 7537, 7536
7025, 7489, 7490, 7538, 7537
7026, 7490, 7491, 7539, 7538
7027, 7491, 7492, 7540, 7539
7028, 7492, 7493, 7541, 7540
7029, 7493, 7494, 7542, 7541
7030, 7494, 7495, 7543, 7542
7031, 7495, 7496, 7544, 7543
7032, 7496, 7497, 7545, 7544
7033, 7497, 7498, 7546, 7545
7034, 7498, 7499, 7547, 7546
7035, 7499, 7500, 7548, 7547
7036, 7500, 7501, 7549, 7548
7037, 7501, 7502, 7550, 7549
7038, 7502, 7503, 7551, 7550
7039, 7503, 7504, 7552, 7551
7040, 7504, 7505, 7553, 7552
7041, 7505, 7506, 7554, 7553
7042, 7506, 7507, 7555, 7554
7043, 7507, 7508, 7556, 7555
7044, 7508, 7509, 7557, 7556
7045, 7509, 7510, 7558, 7557
7046, 7510, 7511, 7559, 7558
7047, 7511, 7512, 7560, 7559
7048, 7512, 7513, 7561, 7560
7049, 7513, 7514, 7562, 7561
7050, 7514, 7515, 7563, 7562
7051, 7515, 7516, 7564, 7563
7052, 7516, 7517, 7565, 7564
7053, 7517, 7518, 7566, 7565
7054, 7518, 7519, 7567, 7566
7055, 7519, 7520, 7568, 7567
7056, 7520,  507,  508, 7568
7057,  557, 7521,  556,   12
7058, 7521, 7522,  555,  556
7059, 7522, 7523,  554,  555
7060, 7523, 7524,  553,  554
7061, 7524, 7525,  552,  553
7062, 7525, 7526,  551,  552
7063, 7526, 7527,  550,  551
7064, 7527, 7528,  549,  550
7065, 7528, 7529,  548,  549
7066, 7529, 7530,  547,  548
7067, 7530, 7531,  546,  547
7068, 7531, 7532,  545,  546
7069, 7532, 7533,  544,  545
7070, 7533, 7534,  543,  544
7071, 7534, 7535,  542,  543
7072, 7535, 7536,  541,  542
7073, 7536, 7537,  540,  541
7074, 7537, 7538,  539,  540
7075, 7538, 7539,  538,  539
7076, 7539, 7540,  537,  538
7077, 7540, 7541,  536,  537
7078, 7541, 7542,  535,  536
7079, 7542, 7543,  534,  535
7080, 7543, 7544,  533,  534
7081, 7544, 7545,  532,  533
7082, 7545, 7546,  531,  532
7083, 7546, 7547,  530,  531
7084, 7547, 7548,  529,  530
7085, 7548, 7549,  528,  529
7086, 7549, 7550,  527,  528
7087, 7550, 7551,  526,  527
7088, 7551, 7552,  525,  526
7089, 7552, 7553,  524,  525
7090, 7553, 7554,  523,  524
7091, 7554, 7555,  522,  523
7092, 7555, 7556,  521,  522
7093, 7556, 7557,  520,  521
7094, 7557, 7558,  519,  520
7095, 7558, 7559,  518,  519
7096, 7559, 7560,  517,  518
7097, 7560, 7561,  516,  517
7098, 7561, 7562,  515,  516
7099, 7562, 7563,  514,  515
7100, 7563, 7564,  513,  514
7101, 7564, 7565,  512,  513
7102, 7565, 7566,  511,  512
7103, 7566, 7567,  510,  511
7104, 7567, 7568,  509,  510
7105, 7568,  508,   11,  509
7106,   10,  424, 7569,  688
7107,  424,  423, 7570, 7569
7108,  423,  422, 7571, 7570
7109,  422,  421, 7572, 7571
7110,  421,  420, 7573, 7572
7111,  420,  419, 7574, 7573
7112,  419,  418, 7575, 7574
7113,  418,  417, 7576, 7575
7114,  417,  416, 7577, 7576
7115,  416,  415, 7578, 7577
7116,  415,  414, 7579, 7578
7117,  414,  413, 7580, 7579
7118,  413,  412, 7581, 7580
7119,  412,  411, 7582, 7581
7120,  411,  410, 7583, 7582
7121,  410,  409, 7584, 7583
7122,  409,  408, 7585, 7584
7123,  408,  407, 7586, 7585
7124,  407,  406, 7587, 7586
7125,  406,  405, 7588, 7587
7126,  405,  404, 7589, 7588
7127,  404,  403, 7590, 7589
7128,  403,  402, 7591, 7590
7129,  402,  401, 7592, 7591
7130,  401,  400, 7593, 7592
7131,  400,  399, 7594, 7593
7132,  399,  398, 7595, 7594
7133,  398,  397, 7596, 7595
7134,  397,  396, 7597, 7596
7135,  396,  395, 7598, 7597
7136,  395,  394, 7599, 7598
7137,  394,  393, 7600, 7599
7138,  393,  392, 7601, 7600
7139,  392,  391, 7602, 7601
7140,  391,  390, 7603, 7602
7141,  390,  389, 7604, 7603
7142,  389,  388, 7605, 7604
7143,  388,  387, 7606, 7605
7144,  387,  386, 7607, 7606
7145,  386,  385, 7608, 7607
7146,  385,  384, 7609, 7608
7147,  384,  383, 7610, 7609
7148,  383,  382, 7611, 7610
7149,  382,  381, 7612, 7611
7150,  381,  380, 7613, 7612
7151,  380,  379, 7614, 7613
7152,  379,  378, 7615, 7614
7153,  378,  377, 7616, 7615
7154,  377,    9,  585, 7616
7155,  688, 7569, 7617,  687
7156, 7569, 7570, 7618, 7617
7157, 7570, 7571, 7619, 7618
7158, 7571, 7572, 7620, 7619
7159, 7572, 7573, 7621, 7620
7160, 7573, 7574, 7622, 7621
7161, 7574, 7575, 7623, 7622
7162, 7575, 7576, 7624, 7623
7163, 7576, 7577, 7625, 7624
7164, 7577, 7578, 7626, 7625
7165, 7578, 7579, 7627, 7626
7166, 7579, 7580, 7628, 7627
7167, 7580, 7581, 7629, 7628
7168, 7581, 7582, 7630, 7629
7169, 7582, 7583, 7631, 7630
7170, 7583, 7584, 7632, 7631
7171, 7584, 7585, 7633, 7632
7172, 7585, 7586, 7634, 7633
7173, 7586, 7587, 7635, 7634
7174, 7587, 7588, 7636, 7635
7175, 7588, 7589, 7637, 7636
7176, 7589, 7590, 7638, 7637
7177, 7590, 7591, 7639, 7638
7178, 7591, 7592, 7640, 7639
7179, 7592, 7593, 7641, 7640
7180, 7593, 7594, 7642, 7641
7181, 7594, 7595, 7643, 7642
7182, 7595, 7596, 7644, 7643
7183, 7596, 7597, 7645, 7644
7184, 7597, 7598, 7646, 7645
7185, 7598, 7599, 7647, 7646
7186, 7599, 7600, 7648, 7647
7187, 7600, 7601, 7649, 7648
7188, 7601, 7602, 7650, 7649
7189, 7602, 7603, 7651, 7650
7190, 7603, 7604, 7652, 7651
7191, 7604, 7605, 7653, 7652
7192, 7605, 7606, 7654, 7653
7193, 7606, 7607, 7655, 7654
7194, 7607, 7608, 7656, 7655
7195, 7608, 7609, 7657, 7656
7196, 7609, 7610, 7658, 7657
7197, 7610, 7611, 7659, 7658
7198, 7611, 7612, 7660, 7659
7199, 7612, 7613, 7661, 7660
7200, 7613, 7614, 7662, 7661
7201, 7614, 7615, 7663, 7662
7202, 7615, 7616, 7664, 7663
7203, 7616,  585,  586, 7664
7204,  687, 7617, 7665,  686
7205, 7617, 7618, 7666, 7665
7206, 7618, 7619, 7667, 7666
7207, 7619, 7620, 7668, 7667
7208, 7620, 7621, 7669, 7668
7209, 7621, 7622, 7670, 7669
7210, 7622, 7623, 7671, 7670
7211, 7623, 7624, 7672, 7671
7212, 7624, 7625, 7673, 7672
7213, 7625, 7626, 7674, 7673
7214, 7626, 7627, 7675, 7674
7215, 7627, 7628, 7676, 7675
7216, 7628, 7629, 7677, 7676
7217, 7629, 7630, 7678, 7677
7218, 7630, 7631, 7679, 7678
7219, 7631, 7632, 7680, 7679
7220, 7632, 7633, 7681, 7680
7221, 7633, 7634, 7682, 7681
7222, 7634, 7635, 7683, 7682
7223, 7635, 7636, 7684, 7683
7224, 7636, 7637, 7685, 7684
7225, 7637, 7638, 7686, 7685
7226, 7638, 7639, 7687, 7686
7227, 7639, 7640, 7688, 7687
7228, 7640, 7641, 7689, 7688
7229, 7641, 7642, 7690, 7689
7230, 7642, 7643, 7691, 7690
7231, 7643, 7644, 7692, 7691
7232, 7644, 7645, 7693, 7692
7233, 7645, 7646, 7694, 7693
7234, 7646, 7647, 7695, 7694
7235, 7647, 7648, 7696, 7695
7236, 7648, 7649, 7697, 7696
7237, 7649, 7650, 7698, 7697
7238, 7650, 7651, 7699, 7698
7239, 7651, 7652, 7700, 7699
7240, 7652, 7653, 7701, 7700
7241, 7653, 7654, 7702, 7701
7242, 7654, 7655, 7703, 7702
7243, 7655, 7656, 7704, 7703
7244, 7656, 7657, 7705, 7704
7245, 7657, 7658, 7706, 7705
7246, 7658, 7659, 7707, 7706
7247, 7659, 7660, 7708, 7707
7248, 7660, 7661, 7709, 7708
7249, 7661, 7662, 7710, 7709
7250, 7662, 7663, 7711, 7710
7251, 7663, 7664, 7712, 7711
7252, 7664,  586,  587, 7712
7253,  686, 7665, 7713,  685
7254, 7665, 7666, 7714, 7713
7255, 7666, 7667, 7715, 7714
7256, 7667, 7668, 7716, 7715
7257, 7668, 7669, 7717, 7716
7258, 7669, 7670, 7718, 7717
7259, 7670, 7671, 7719, 7718
7260, 7671, 7672, 7720, 7719
7261, 7672, 7673, 7721, 7720
7262, 7673, 7674, 7722, 7721
7263, 7674, 7675, 7723, 7722
7264, 7675, 7676, 7724, 7723
7265, 7676, 7677, 7725, 7724
7266, 7677, 7678, 7726, 7725
7267, 7678, 7679, 7727, 7726
7268, 7679, 7680, 7728, 7727
7269, 7680, 7681, 7729, 7728
7270, 7681, 7682, 7730, 7729
7271, 7682, 7683, 7731, 7730
7272, 7683, 7684, 7732, 7731
7273, 7684, 7685, 7733, 7732
7274, 7685, 7686, 7734, 7733
7275, 7686, 7687, 7735, 7734
7276, 7687, 7688, 7736, 7735
7277, 7688, 7689, 7737, 7736
7278, 7689, 7690, 7738, 7737
7279, 7690, 7691, 7739, 7738
7280, 7691, 7692, 7740, 7739
7281, 7692, 7693, 7741, 7740
7282, 7693, 7694, 7742, 7741
7283, 7694, 7695, 7743, 7742
7284, 7695, 7696, 7744, 7743
7285, 7696, 7697, 7745, 7744
7286, 7697, 7698, 7746, 7745
7287, 7698, 7699, 7747, 7746
7288, 7699, 7700, 7748, 7747
7289, 7700, 7701, 7749, 7748
7290, 7701, 7702, 7750, 7749
7291, 7702, 7703, 7751, 7750
7292, 7703, 7704, 7752, 7751
7293, 7704, 7705, 7753, 7752
7294, 7705, 7706, 7754, 7753
7295, 7706, 7707, 7755, 7754
7296, 7707, 7708, 7756, 7755
7297, 7708, 7709, 7757, 7756
7298, 7709, 7710, 7758, 7757
7299, 7710, 7711, 7759, 7758
7300, 7711, 7712, 7760, 7759
7301, 7712,  587,  588, 7760
7302,  685, 7713, 7761,  684
7303, 7713, 7714, 7762, 7761
7304, 7714, 7715, 7763, 7762
7305, 7715, 7716, 7764, 7763
7306, 7716, 7717, 7765, 7764
7307, 7717, 7718, 7766, 7765
7308, 7718, 7719, 7767, 7766
7309, 7719, 7720, 7768, 7767
7310, 7720, 7721, 7769, 7768
7311, 7721, 7722, 7770, 7769
7312, 7722, 7723, 7771, 7770
7313, 7723, 7724, 7772, 7771
7314, 7724, 7725, 7773, 7772
7315, 7725, 7726, 7774, 7773
7316, 7726, 7727, 7775, 7774
7317, 7727, 7728, 7776, 7775
7318, 7728, 7729, 7777, 7776
7319, 7729, 7730, 7778, 7777
7320, 7730, 7731, 7779, 7778
7321, 7731, 7732, 7780, 7779
7322, 7732, 7733, 7781, 7780
7323, 7733, 7734, 7782, 7781
7324, 7734, 7735, 7783, 7782
7325, 7735, 7736, 7784, 7783
7326, 7736, 7737, 7785, 7784
7327, 7737, 7738, 7786, 7785
7328, 7738, 7739, 7787, 7786
7329, 7739, 7740, 7788, 7787
7330, 7740, 7741, 7789, 7788
7331, 7741, 7742, 7790, 7789
7332, 7742, 7743, 7791, 7790
7333, 7743, 7744, 7792, 7791
7334, 7744, 7745, 7793, 7792
7335, 7745, 7746, 7794, 7793
7336, 7746, 7747, 7795, 7794
7337, 7747, 7748, 7796, 7795
7338, 7748, 7749, 7797, 7796
7339, 7749, 7750, 7798, 7797
7340, 7750, 7751, 7799, 7798
7341, 7751, 7752, 7800, 7799
7342, 7752, 7753, 7801, 7800
7343, 7753, 7754, 7802, 7801
7344, 7754, 7755, 7803, 7802
7345, 7755, 7756, 7804, 7803
7346, 7756, 7757, 7805, 7804
7347, 7757, 7758, 7806, 7805
7348, 7758, 7759, 7807, 7806
7349, 7759, 7760, 7808, 7807
7350, 7760,  588,  589, 7808
7351,  684, 7761, 7809,  683
7352, 7761, 7762, 7810, 7809
7353, 7762, 7763, 7811, 7810
7354, 7763, 7764, 7812, 7811
7355, 7764, 7765, 7813, 7812
7356, 7765, 7766, 7814, 7813
7357, 7766, 7767, 7815, 7814
7358, 7767, 7768, 7816, 7815
7359, 7768, 7769, 7817, 7816
7360, 7769, 7770, 7818, 7817
7361, 7770, 7771, 7819, 7818
7362, 7771, 7772, 7820, 7819
7363, 7772, 7773, 7821, 7820
7364, 7773, 7774, 7822, 7821
7365, 7774, 7775, 7823, 7822
7366, 7775, 7776, 7824, 7823
7367, 7776, 7777, 7825, 7824
7368, 7777, 7778, 7826, 7825
7369, 7778, 7779, 7827, 7826
7370, 7779, 7780, 7828, 7827
7371, 7780, 7781, 7829, 7828
7372, 7781, 7782, 7830, 7829
7373, 7782, 7783, 7831, 7830
7374, 7783, 7784, 7832, 7831
7375, 7784, 7785, 7833, 7832
7376, 7785, 7786, 7834, 7833
7377, 7786, 7787, 7835, 7834
7378, 7787, 7788, 7836, 7835
7379, 7788, 7789, 7837, 7836
7380, 7789, 7790, 7838, 7837
7381, 7790, 7791, 7839, 7838
7382, 7791, 7792, 7840, 7839
7383, 7792, 7793, 7841, 7840
7384, 7793, 7794, 7842, 7841
7385, 7794, 7795, 7843, 7842
7386, 7795, 7796, 7844, 7843
7387, 7796, 7797, 7845, 7844
7388, 7797, 7798, 7846, 7845
7389, 7798, 7799, 7847, 7846
7390, 7799, 7800, 7848, 7847
7391, 7800, 7801, 7849, 7848
7392, 7801, 7802, 7850, 7849
7393, 7802, 7803, 7851, 7850
7394, 7803, 7804, 7852, 7851
7395, 7804, 7805, 7853, 7852
7396, 7805, 7806, 7854, 7853
7397, 7806, 7807, 7855, 7854
7398, 7807, 7808, 7856, 7855
7399, 7808,  589,  590, 7856
7400,  683, 7809, 7857,  682
7401, 7809, 7810, 7858, 7857
7402, 7810, 7811, 7859, 7858
7403, 7811, 7812, 7860, 7859
7404, 7812, 7813, 7861, 7860
7405, 7813, 7814, 7862, 7861
7406, 7814, 7815, 7863, 7862
7407, 7815, 7816, 7864, 7863
7408, 7816, 7817, 7865, 7864
7409, 7817, 7818, 7866, 7865
7410, 7818, 7819, 7867, 7866
7411, 7819, 7820, 7868, 7867
7412, 7820, 7821, 7869, 7868
7413, 7821, 7822, 7870, 7869
7414, 7822, 7823, 7871, 7870
7415, 7823, 7824, 7872, 7871
7416, 7824, 7825, 7873, 7872
7417, 7825, 7826, 7874, 7873
7418, 7826, 7827, 7875, 7874
7419, 7827, 7828, 7876, 7875
7420, 7828, 7829, 7877, 7876
7421, 7829, 7830, 7878, 7877
7422, 7830, 7831, 7879, 7878
7423, 7831, 7832, 7880, 7879
7424, 7832, 7833, 7881, 7880
7425, 7833, 7834, 7882, 7881
7426, 7834, 7835, 7883, 7882
7427, 7835, 7836, 7884, 7883
7428, 7836, 7837, 7885, 7884
7429, 7837, 7838, 7886, 7885
7430, 7838, 7839, 7887, 7886
7431, 7839, 7840, 7888, 7887
7432, 7840, 7841, 7889, 7888
7433, 7841, 7842, 7890, 7889
7434, 7842, 7843, 7891, 7890
7435, 7843, 7844, 7892, 7891
7436, 7844, 7845, 7893, 7892
7437, 7845, 7846, 7894, 7893
7438, 7846, 7847, 7895, 7894
7439, 7847, 7848, 7896, 7895
7440, 7848, 7849, 7897, 7896
7441, 7849, 7850, 7898, 7897
7442, 7850, 7851, 7899, 7898
7443, 7851, 7852, 7900, 7899
7444, 7852, 7853, 7901, 7900
7445, 7853, 7854, 7902, 7901
7446, 7854, 7855, 7903, 7902
7447, 7855, 7856, 7904, 7903
7448, 7856,  590,  591, 7904
7449,  682, 7857, 7905,  681
7450, 7857, 7858, 7906, 7905
7451, 7858, 7859, 7907, 7906
7452, 7859, 7860, 7908, 7907
7453, 7860, 7861, 7909, 7908
7454, 7861, 7862, 7910, 7909
7455, 7862, 7863, 7911, 7910
7456, 7863, 7864, 7912, 7911
7457, 7864, 7865, 7913, 7912
7458, 7865, 7866, 7914, 7913
7459, 7866, 7867, 7915, 7914
7460, 7867, 7868, 7916, 7915
7461, 7868, 7869, 7917, 7916
7462, 7869, 7870, 7918, 7917
7463, 7870, 7871, 7919, 7918
7464, 7871, 7872, 7920, 7919
7465, 7872, 7873, 7921, 7920
7466, 7873, 7874, 7922, 7921
7467, 7874, 7875, 7923, 7922
7468, 7875, 7876, 7924, 7923
7469, 7876, 7877, 7925, 7924
7470, 7877, 7878, 7926, 7925
7471, 7878, 7879, 7927, 7926
7472, 7879, 7880, 7928, 7927
7473, 7880, 7881, 7929, 7928
7474, 7881, 7882, 7930, 7929
7475, 7882, 7883, 7931, 7930
7476, 7883, 7884, 7932, 7931
7477, 7884, 7885, 7933, 7932
7478, 7885, 7886, 7934, 7933
7479, 7886, 7887, 7935, 7934
7480, 7887, 7888, 7936, 7935
7481, 7888, 7889, 7937, 7936
7482, 7889, 7890, 7938, 7937
7483, 7890, 7891, 7939, 7938
7484, 7891, 7892, 7940, 7939
7485, 7892, 7893, 7941, 7940
7486, 7893, 7894, 7942, 7941
7487, 7894, 7895, 7943, 7942
7488, 7895, 7896, 7944, 7943
7489, 7896, 7897, 7945, 7944
7490, 7897, 7898, 7946, 7945
7491, 7898, 7899, 7947, 7946
7492, 7899, 7900, 7948, 7947
7493, 7900, 7901, 7949, 7948
7494, 7901, 7902, 7950, 7949
7495, 7902, 7903, 7951, 7950
7496, 7903, 7904, 7952, 7951
7497, 7904,  591,  592, 7952
7498,  681, 7905, 7953,  680
7499, 7905, 7906, 7954, 7953
7500, 7906, 7907, 7955, 7954
7501, 7907, 7908, 7956, 7955
7502, 7908, 7909, 7957, 7956
7503, 7909, 7910, 7958, 7957
7504, 7910, 7911, 7959, 7958
7505, 7911, 7912, 7960, 7959
7506, 7912, 7913, 7961, 7960
7507, 7913, 7914, 7962, 7961
7508, 7914, 7915, 7963, 7962
7509, 7915, 7916, 7964, 7963
7510, 7916, 7917, 7965, 7964
7511, 7917, 7918, 7966, 7965
7512, 7918, 7919, 7967, 7966
7513, 7919, 7920, 7968, 7967
7514, 7920, 7921, 7969, 7968
7515, 7921, 7922, 7970, 7969
7516, 7922, 7923, 7971, 7970
7517, 7923, 7924, 7972, 7971
7518, 7924, 7925, 7973, 7972
7519, 7925, 7926, 7974, 7973
7520, 7926, 7927, 7975, 7974
7521, 7927, 7928, 7976, 7975
7522, 7928, 7929, 7977, 7976
7523, 7929, 7930, 7978, 7977
7524, 7930, 7931, 7979, 7978
7525, 7931, 7932, 7980, 7979
7526, 7932, 7933, 7981, 7980
7527, 7933, 7934, 7982, 7981
7528, 7934, 7935, 7983, 7982
7529, 7935, 7936, 7984, 7983
7530, 7936, 7937, 7985, 7984
7531, 7937, 7938, 7986, 7985
7532, 7938, 7939, 7987, 7986
7533, 7939, 7940, 7988, 7987
7534, 7940, 7941, 7989, 7988
7535, 7941, 7942, 7990, 7989
7536, 7942, 7943, 7991, 7990
7537, 7943, 7944, 7992, 7991
7538, 7944, 7945, 7993, 7992
7539, 7945, 7946, 7994, 7993
7540, 7946, 7947, 7995, 7994
7541, 7947, 7948, 7996, 7995
7542, 7948, 7949, 7997, 7996
7543, 7949, 7950, 7998, 7997
7544, 7950, 7951, 7999, 7998
7545, 7951, 7952, 8000, 7999
7546, 7952,  592,  593, 8000
7547,  680, 7953, 8001,  679
7548, 7953, 7954, 8002, 8001
7549, 7954, 7955, 8003, 8002
7550, 7955, 7956, 8004, 8003
7551, 7956, 7957, 8005, 8004
7552, 7957, 7958, 8006, 8005
7553, 7958, 7959, 8007, 8006
7554, 7959, 7960, 8008, 8007
7555, 7960, 7961, 8009, 8008
7556, 7961, 7962, 8010, 8009
7557, 7962, 7963, 8011, 8010
7558, 7963, 7964, 8012, 8011
7559, 7964, 7965, 8013, 8012
7560, 7965, 7966, 8014, 8013
7561, 7966, 7967, 8015, 8014
7562, 7967, 7968, 8016, 8015
7563, 7968, 7969, 8017, 8016
7564, 7969, 7970, 8018, 8017
7565, 7970, 7971, 8019, 8018
7566, 7971, 7972, 8020, 8019
7567, 7972, 7973, 8021, 8020
7568, 7973, 7974, 8022, 8021
7569, 7974, 7975, 8023, 8022
7570, 7975, 7976, 8024, 8023
7571, 7976, 7977, 8025, 8024
7572, 7977, 7978, 8026, 8025
7573, 7978, 7979, 8027, 8026
7574, 7979, 7980, 8028, 8027
7575, 7980, 7981, 8029, 8028
7576, 7981, 7982, 8030, 8029
7577, 7982, 7983, 8031, 8030
7578, 7983, 7984, 8032, 8031
7579, 7984, 7985, 8033, 8032
7580, 7985, 7986, 8034, 8033
7581, 7986, 7987, 8035, 8034
7582, 7987, 7988, 8036, 8035
7583, 7988, 7989, 8037, 8036
7584, 7989, 7990, 8038, 8037
7585, 7990, 7991, 8039, 8038
7586, 7991, 7992, 8040, 8039
7587, 7992, 7993, 8041, 8040
7588, 7993, 7994, 8042, 8041
7589, 7994, 7995, 8043, 8042
7590, 7995, 7996, 8044, 8043
7591, 7996, 7997, 8045, 8044
7592, 7997, 7998, 8046, 8045
7593, 7998, 7999, 8047, 8046
7594, 7999, 8000, 8048, 8047
7595, 8000,  593,  594, 8048
7596,  679, 8001, 8049,  678
7597, 8001, 8002, 8050, 8049
7598, 8002, 8003, 8051, 8050
7599, 8003, 8004, 8052, 8051
7600, 8004, 8005, 8053, 8052
7601, 8005, 8006, 8054, 8053
7602, 8006, 8007, 8055, 8054
7603, 8007, 8008, 8056, 8055
7604, 8008, 8009, 8057, 8056
7605, 8009, 8010, 8058, 8057
7606, 8010, 8011, 8059, 8058
7607, 8011, 8012, 8060, 8059
7608, 8012, 8013, 8061, 8060
7609, 8013, 8014, 8062, 8061
7610, 8014, 8015, 8063, 8062
7611, 8015, 8016, 8064, 8063
7612, 8016, 8017, 8065, 8064
7613, 8017, 8018, 8066, 8065
7614, 8018, 8019, 8067, 8066
7615, 8019, 8020, 8068, 8067
7616, 8020, 8021, 8069, 8068
7617, 8021, 8022, 8070, 8069
7618, 8022, 8023, 8071, 8070
7619, 8023, 8024, 8072, 8071
7620, 8024, 8025, 8073, 8072
7621, 8025, 8026, 8074, 8073
7622, 8026, 8027, 8075, 8074
7623, 8027, 8028, 8076, 8075
7624, 8028, 8029, 8077, 8076
7625, 8029, 8030, 8078, 8077
7626, 8030, 8031, 8079, 8078
7627, 8031, 8032, 8080, 8079
7628, 8032, 8033, 8081, 8080
7629, 8033, 8034, 8082, 8081
7630, 8034, 8035, 8083, 8082
7631, 8035, 8036, 8084, 8083
7632, 8036, 8037, 8085, 8084
7633, 8037, 8038, 8086, 8085
7634, 8038, 8039, 8087, 8086
7635, 8039, 8040, 8088, 8087
7636, 8040, 8041, 8089, 8088
7637, 8041, 8042, 8090, 8089
7638, 8042, 8043, 8091, 8090
7639, 8043, 8044, 8092, 8091
7640, 8044, 8045, 8093, 8092
7641, 8045, 8046, 8094, 8093
7642, 8046, 8047, 8095, 8094
7643, 8047, 8048, 8096, 8095
7644, 8048,  594,  595, 8096
7645,  678, 8049, 8097,  677
7646, 8049, 8050, 8098, 8097
7647, 8050, 8051, 8099, 8098
7648, 8051, 8052, 8100, 8099
7649, 8052, 8053, 8101, 8100
7650, 8053, 8054, 8102, 8101
7651, 8054, 8055, 8103, 8102
7652, 8055, 8056, 8104, 8103
7653, 8056, 8057, 8105, 8104
7654, 8057, 8058, 8106, 8105
7655, 8058, 8059, 8107, 8106
7656, 8059, 8060, 8108, 8107
7657, 8060, 8061, 8109, 8108
7658, 8061, 8062, 8110, 8109
7659, 8062, 8063, 8111, 8110
7660, 8063, 8064, 8112, 8111
7661, 8064, 8065, 8113, 8112
7662, 8065, 8066, 8114, 8113
7663, 8066, 8067, 8115, 8114
7664, 8067, 8068, 8116, 8115
7665, 8068, 8069, 8117, 8116
7666, 8069, 8070, 8118, 8117
7667, 8070, 8071, 8119, 8118
7668, 8071, 8072, 8120, 8119
7669, 8072, 8073, 8121, 8120
7670, 8073, 8074, 8122, 8121
7671, 8074, 8075, 8123, 8122
7672, 8075, 8076, 8124, 8123
7673, 8076, 8077, 8125, 8124
7674, 8077, 8078, 8126, 8125
7675, 8078, 8079, 8127, 8126
7676, 8079, 8080, 8128, 8127
7677, 8080, 8081, 8129, 8128
7678, 8081, 8082, 8130, 8129
7679, 8082, 8083, 8131, 8130
7680, 8083, 8084, 8132, 8131
7681, 8084, 8085, 8133, 8132
7682, 8085, 8086, 8134, 8133
7683, 8086, 8087, 8135, 8134
7684, 8087, 8088, 8136, 8135
7685, 8088, 8089, 8137, 8136
7686, 8089, 8090, 8138, 8137
7687, 8090, 8091, 8139, 8138
7688, 8091, 8092, 8140, 8139
7689, 8092, 8093, 8141, 8140
7690, 8093, 8094, 8142, 8141
7691, 8094, 8095, 8143, 8142
7692, 8095, 8096, 8144, 8143
7693, 8096,  595,  596, 8144
7694,  677, 8097, 8145,  676
7695, 8097, 8098, 8146, 8145
7696, 8098, 8099, 8147, 8146
7697, 8099, 8100, 8148, 8147
7698, 8100, 8101, 8149, 8148
7699, 8101, 8102, 8150, 8149
7700, 8102, 8103, 8151, 8150
7701, 8103, 8104, 8152, 8151
7702, 8104, 8105, 8153, 8152
7703, 8105, 8106, 8154, 8153
7704, 8106, 8107, 8155, 8154
7705, 8107, 8108, 8156, 8155
7706, 8108, 8109, 8157, 8156
7707, 8109, 8110, 8158, 8157
7708, 8110, 8111, 8159, 8158
7709, 8111, 8112, 8160, 8159
7710, 8112, 8113, 8161, 8160
7711, 8113, 8114, 8162, 8161
7712, 8114, 8115, 8163, 8162
7713, 8115, 8116, 8164, 8163
7714, 8116, 8117, 8165, 8164
7715, 8117, 8118, 8166, 8165
7716, 8118, 8119, 8167, 8166
7717, 8119, 8120, 8168, 8167
7718, 8120, 8121, 8169, 8168
7719, 8121, 8122, 8170, 8169
7720, 8122, 8123, 8171, 8170
7721, 8123, 8124, 8172, 8171
7722, 8124, 8125, 8173, 8172
7723, 8125, 8126, 8174, 8173
7724, 8126, 8127, 8175, 8174
7725, 8127, 8128, 8176, 8175
7726, 8128, 8129, 8177, 8176
7727, 8129, 8130, 8178, 8177
7728, 8130, 8131, 8179, 8178
7729, 8131, 8132, 8180, 8179
7730, 8132, 8133, 8181, 8180
7731, 8133, 8134, 8182, 8181
7732, 8134, 8135, 8183, 8182
7733, 8135, 8136, 8184, 8183
7734, 8136, 8137, 8185, 8184
7735, 8137, 8138, 8186, 8185
7736, 8138, 8139, 8187, 8186
7737, 8139, 8140, 8188, 8187
7738, 8140, 8141, 8189, 8188
7739, 8141, 8142, 8190, 8189
7740, 8142, 8143, 8191, 8190
7741, 8143, 8144, 8192, 8191
7742, 8144,  596,  597, 8192
7743,  676, 8145, 8193,  675
7744, 8145, 8146, 8194, 8193
7745, 8146, 8147, 8195, 8194
7746, 8147, 8148, 8196, 8195
7747, 8148, 8149, 8197, 8196
7748, 8149, 8150, 8198, 8197
7749, 8150, 8151, 8199, 8198
7750, 8151, 8152, 8200, 8199
7751, 8152, 8153, 8201, 8200
7752, 8153, 8154, 8202, 8201
7753, 8154, 8155, 8203, 8202
7754, 8155, 8156, 8204, 8203
7755, 8156, 8157, 8205, 8204
7756, 8157, 8158, 8206, 8205
7757, 8158, 8159, 8207, 8206
7758, 8159, 8160, 8208, 8207
7759, 8160, 8161, 8209, 8208
7760, 8161, 8162, 8210, 8209
7761, 8162, 8163, 8211, 8210
7762, 8163, 8164, 8212, 8211
7763, 8164, 8165, 8213, 8212
7764, 8165, 8166, 8214, 8213
7765, 8166, 8167, 8215, 8214
7766, 8167, 8168, 8216, 8215
7767, 8168, 8169, 8217, 8216
7768, 8169, 8170, 8218, 8217
7769, 8170, 8171, 8219, 8218
7770, 8171, 8172, 8220, 8219
7771, 8172, 8173, 8221, 8220
7772, 8173, 8174, 8222, 8221
7773, 8174, 8175, 8223, 8222
7774, 8175, 8176, 8224, 8223
7775, 8176, 8177, 8225, 8224
7776, 8177, 8178, 8226, 8225
7777, 8178, 8179, 8227, 8226
7778, 8179, 8180, 8228, 8227
7779, 8180, 8181, 8229, 8228
7780, 8181, 8182, 8230, 8229
7781, 8182, 8183, 8231, 8230
7782, 8183, 8184, 8232, 8231
7783, 8184, 8185, 8233, 8232
7784, 8185, 8186, 8234, 8233
7785, 8186, 8187, 8235, 8234
7786, 8187, 8188, 8236, 8235
7787, 8188, 8189, 8237, 8236
7788, 8189, 8190, 8238, 8237
7789, 8190, 8191, 8239, 8238
7790, 8191, 8192, 8240, 8239
7791, 8192,  597,  598, 8240
7792,  675, 8193, 8241,  674
7793, 8193, 8194, 8242, 8241
7794, 8194, 8195, 8243, 8242
7795, 8195, 8196, 8244, 8243
7796, 8196, 8197, 8245, 8244
7797, 8197, 8198, 8246, 8245
7798, 8198, 8199, 8247, 8246
7799, 8199, 8200, 8248, 8247
7800, 8200, 8201, 8249, 8248
7801, 8201, 8202, 8250, 8249
7802, 8202, 8203, 8251, 8250
7803, 8203, 8204, 8252, 8251
7804, 8204, 8205, 8253, 8252
7805, 8205, 8206, 8254, 8253
7806, 8206, 8207, 8255, 8254
7807, 8207, 8208, 8256, 8255
7808, 8208, 8209, 8257, 8256
7809, 8209, 8210, 8258, 8257
7810, 8210, 8211, 8259, 8258
7811, 8211, 8212, 8260, 8259
7812, 8212, 8213, 8261, 8260
7813, 8213, 8214, 8262, 8261
7814, 8214, 8215, 8263, 8262
7815, 8215, 8216, 8264, 8263
7816, 8216, 8217, 8265, 8264
7817, 8217, 8218, 8266, 8265
7818, 8218, 8219, 8267, 8266
7819, 8219, 8220, 8268, 8267
7820, 8220, 8221, 8269, 8268
7821, 8221, 8222, 8270, 8269
7822, 8222, 8223, 8271, 8270
7823, 8223, 8224, 8272, 8271
7824, 8224, 8225, 8273, 8272
7825, 8225, 8226, 8274, 8273
7826, 8226, 8227, 8275, 8274
7827, 8227, 8228, 8276, 8275
7828, 8228, 8229, 8277, 8276
7829, 8229, 8230, 8278, 8277
7830, 8230, 8231, 8279, 8278
7831, 8231, 8232, 8280, 8279
7832, 8232, 8233, 8281, 8280
7833, 8233, 8234, 8282, 8281
7834, 8234, 8235, 8283, 8282
7835, 8235, 8236, 8284, 8283
7836, 8236, 8237, 8285, 8284
7837, 8237, 8238, 8286, 8285
7838, 8238, 8239, 8287, 8286
7839, 8239, 8240, 8288, 8287
7840, 8240,  598,  599, 8288
7841,  674, 8241, 8289,  673
7842, 8241, 8242, 8290, 8289
7843, 8242, 8243, 8291, 8290
7844, 8243, 8244, 8292, 8291
7845, 8244, 8245, 8293, 8292
7846, 8245, 8246, 8294, 8293
7847, 8246, 8247, 8295, 8294
7848, 8247, 8248, 8296, 8295
7849, 8248, 8249, 8297, 8296
7850, 8249, 8250, 8298, 8297
7851, 8250, 8251, 8299, 8298
7852, 8251, 8252, 8300, 8299
7853, 8252, 8253, 8301, 8300
7854, 8253, 8254, 8302, 8301
7855, 8254, 8255, 8303, 8302
7856, 8255, 8256, 8304, 8303
7857, 8256, 8257, 8305, 8304
7858, 8257, 8258, 8306, 8305
7859, 8258, 8259, 8307, 8306
7860, 8259, 8260, 8308, 8307
7861, 8260, 8261, 8309, 8308
7862, 8261, 8262, 8310, 8309
7863, 8262, 8263, 8311, 8310
7864, 8263, 8264, 8312, 8311
7865, 8264, 8265, 8313, 8312
7866, 8265, 8266, 8314, 8313
7867, 8266, 8267, 8315, 8314
7868, 8267, 8268, 8316, 8315
7869, 8268, 8269, 8317, 8316
7870, 8269, 8270, 8318, 8317
7871, 8270, 8271, 8319, 8318
7872, 8271, 8272, 8320, 8319
7873, 8272, 8273, 8321, 8320
7874, 8273, 8274, 8322, 8321
7875, 8274, 8275, 8323, 8322
7876, 8275, 8276, 8324, 8323
7877, 8276, 8277, 8325, 8324
7878, 8277, 8278, 8326, 8325
7879, 8278, 8279, 8327, 8326
7880, 8279, 8280, 8328, 8327
7881, 8280, 8281, 8329, 8328
7882, 8281, 8282, 8330, 8329
7883, 8282, 8283, 8331, 8330
7884, 8283, 8284, 8332, 8331
7885, 8284, 8285, 8333, 8332
7886, 8285, 8286, 8334, 8333
7887, 8286, 8287, 8335, 8334
7888, 8287, 8288, 8336, 8335
7889, 8288,  599,  600, 8336
7890,  673, 8289, 8337,  672
7891, 8289, 8290, 8338, 8337
7892, 8290, 8291, 8339, 8338
7893, 8291, 8292, 8340, 8339
7894, 8292, 8293, 8341, 8340
7895, 8293, 8294, 8342, 8341
7896, 8294, 8295, 8343, 8342
7897, 8295, 8296, 8344, 8343
7898, 8296, 8297, 8345, 8344
7899, 8297, 8298, 8346, 8345
7900, 8298, 8299, 8347, 8346
7901, 8299, 8300, 8348, 8347
7902, 8300, 8301, 8349, 8348
7903, 8301, 8302, 8350, 8349
7904, 8302, 8303, 8351, 8350
7905, 8303, 8304, 8352, 8351
7906, 8304, 8305, 8353, 8352
7907, 8305, 8306, 8354, 8353
7908, 8306, 8307, 8355, 8354
7909, 8307, 8308, 8356, 8355
7910, 8308, 8309, 8357, 8356
7911, 8309, 8310, 8358, 8357
7912, 8310, 8311, 8359, 8358
7913, 8311, 8312, 8360, 8359
7914, 8312, 8313, 8361, 8360
7915, 8313, 8314, 8362, 8361
7916, 8314, 8315, 8363, 8362
7917, 8315, 8316, 8364, 8363
7918, 8316, 8317, 8365, 8364
7919, 8317, 8318, 8366, 8365
7920, 8318, 8319, 8367, 8366
7921, 8319, 8320, 8368, 8367
7922, 8320, 8321, 8369, 8368
7923, 8321, 8322, 8370, 8369
7924, 8322, 8323, 8371, 8370
7925, 8323, 8324, 8372, 8371
7926, 8324, 8325, 8373, 8372
7927, 8325, 8326, 8374, 8373
7928, 8326, 8327, 8375, 8374
7929, 8327, 8328, 8376, 8375
7930, 8328, 8329, 8377, 8376
7931, 8329, 8330, 8378, 8377
7932, 8330, 8331, 8379, 8378
7933, 8331, 8332, 8380, 8379
7934, 8332, 8333, 8381, 8380
7935, 8333, 8334, 8382, 8381
7936, 8334, 8335, 8383, 8382
7937, 8335, 8336, 8384, 8383
7938, 8336,  600,  601, 8384
7939,  672, 8337, 8385,  671
7940, 8337, 8338, 8386, 8385
7941, 8338, 8339, 8387, 8386
7942, 8339, 8340, 8388, 8387
7943, 8340, 8341, 8389, 8388
7944, 8341, 8342, 8390, 8389
7945, 8342, 8343, 8391, 8390
7946, 8343, 8344, 8392, 8391
7947, 8344, 8345, 8393, 8392
7948, 8345, 8346, 8394, 8393
7949, 8346, 8347, 8395, 8394
7950, 8347, 8348, 8396, 8395
7951, 8348, 8349, 8397, 8396
7952, 8349, 8350, 8398, 8397
7953, 8350, 8351, 8399, 8398
7954, 8351, 8352, 8400, 8399
7955, 8352, 8353, 8401, 8400
7956, 8353, 8354, 8402, 8401
7957, 8354, 8355, 8403, 8402
7958, 8355, 8356, 8404, 8403
7959, 8356, 8357, 8405, 8404
7960, 8357, 8358, 8406, 8405
7961, 8358, 8359, 8407, 8406
7962, 8359, 8360, 8408, 8407
7963, 8360, 8361, 8409, 8408
7964, 8361, 8362, 8410, 8409
7965, 8362, 8363, 8411, 8410
7966, 8363, 8364, 8412, 8411
7967, 8364, 8365, 8413, 8412
7968, 8365, 8366, 8414, 8413
7969, 8366, 8367, 8415, 8414
7970, 8367, 8368, 8416, 8415
7971, 8368, 8369, 8417, 8416
7972, 8369, 8370, 8418, 8417
7973, 8370, 8371, 8419, 8418
7974, 8371, 8372, 8420, 8419
7975, 8372, 8373, 8421, 8420
7976, 8373, 8374, 8422, 8421
7977, 8374, 8375, 8423, 8422
7978, 8375, 8376, 8424, 8423
7979, 8376, 8377, 8425, 8424
7980, 8377, 8378, 8426, 8425
7981, 8378, 8379, 8427, 8426
7982, 8379, 8380, 8428, 8427
7983, 8380, 8381, 8429, 8428
7984, 8381, 8382, 8430, 8429
7985, 8382, 8383, 8431, 8430
7986, 8383, 8384, 8432, 8431
7987, 8384,  601,  602, 8432
7988,  671, 8385, 8433,  670
7989, 8385, 8386, 8434, 8433
7990, 8386, 8387, 8435, 8434
7991, 8387, 8388, 8436, 8435
7992, 8388, 8389, 8437, 8436
7993, 8389, 8390, 8438, 8437
7994, 8390, 8391, 8439, 8438
7995, 8391, 8392, 8440, 8439
7996, 8392, 8393, 8441, 8440
7997, 8393, 8394, 8442, 8441
7998, 8394, 8395, 8443, 8442
7999, 8395, 8396, 8444, 8443
8000, 8396, 8397, 8445, 8444
8001, 8397, 8398, 8446, 8445
8002, 8398, 8399, 8447, 8446
8003, 8399, 8400, 8448, 8447
8004, 8400, 8401, 8449, 8448
8005, 8401, 8402, 8450, 8449
8006, 8402, 8403, 8451, 8450
8007, 8403, 8404, 8452, 8451
8008, 8404, 8405, 8453, 8452
8009, 8405, 8406, 8454, 8453
8010, 8406, 8407, 8455, 8454
8011, 8407, 8408, 8456, 8455
8012, 8408, 8409, 8457, 8456
8013, 8409, 8410, 8458, 8457
8014, 8410, 8411, 8459, 8458
8015, 8411, 8412, 8460, 8459
8016, 8412, 8413, 8461, 8460
8017, 8413, 8414, 8462, 8461
8018, 8414, 8415, 8463, 8462
8019, 8415, 8416, 8464, 8463
8020, 8416, 8417, 8465, 8464
8021, 8417, 8418, 8466, 8465
8022, 8418, 8419, 8467, 8466
8023, 8419, 8420, 8468, 8467
8024, 8420, 8421, 8469, 8468
8025, 8421, 8422, 8470, 8469
8026, 8422, 8423, 8471, 8470
8027, 8423, 8424, 8472, 8471
8028, 8424, 8425, 8473, 8472
8029, 8425, 8426, 8474, 8473
8030, 8426, 8427, 8475, 8474
8031, 8427, 8428, 8476, 8475
8032, 8428, 8429, 8477, 8476
8033, 8429, 8430, 8478, 8477
8034, 8430, 8431, 8479, 8478
8035, 8431, 8432, 8480, 8479
8036, 8432,  602,  603, 8480
8037,  670, 8433, 8481,  669
8038, 8433, 8434, 8482, 8481
8039, 8434, 8435, 8483, 8482
8040, 8435, 8436, 8484, 8483
8041, 8436, 8437, 8485, 8484
8042, 8437, 8438, 8486, 8485
8043, 8438, 8439, 8487, 8486
8044, 8439, 8440, 8488, 8487
8045, 8440, 8441, 8489, 8488
8046, 8441, 8442, 8490, 8489
8047, 8442, 8443, 8491, 8490
8048, 8443, 8444, 8492, 8491
8049, 8444, 8445, 8493, 8492
8050, 8445, 8446, 8494, 8493
8051, 8446, 8447, 8495, 8494
8052, 8447, 8448, 8496, 8495
8053, 8448, 8449, 8497, 8496
8054, 8449, 8450, 8498, 8497
8055, 8450, 8451, 8499, 8498
8056, 8451, 8452, 8500, 8499
8057, 8452, 8453, 8501, 8500
8058, 8453, 8454, 8502, 8501
8059, 8454, 8455, 8503, 8502
8060, 8455, 8456, 8504, 8503
8061, 8456, 8457, 8505, 8504
8062, 8457, 8458, 8506, 8505
8063, 8458, 8459, 8507, 8506
8064, 8459, 8460, 8508, 8507
8065, 8460, 8461, 8509, 8508
8066, 8461, 8462, 8510, 8509
8067, 8462, 8463, 8511, 8510
8068, 8463, 8464, 8512, 8511
8069, 8464, 8465, 8513, 8512
8070, 8465, 8466, 8514, 8513
8071, 8466, 8467, 8515, 8514
8072, 8467, 8468, 8516, 8515
8073, 8468, 8469, 8517, 8516
8074, 8469, 8470, 8518, 8517
8075, 8470, 8471, 8519, 8518
8076, 8471, 8472, 8520, 8519
8077, 8472, 8473, 8521, 8520
8078, 8473, 8474, 8522, 8521
8079, 8474, 8475, 8523, 8522
8080, 8475, 8476, 8524, 8523
8081, 8476, 8477, 8525, 8524
8082, 8477, 8478, 8526, 8525
8083, 8478, 8479, 8527, 8526
8084, 8479, 8480, 8528, 8527
8085, 8480,  603,  604, 8528
8086,  669, 8481, 8529,  668
8087, 8481, 8482, 8530, 8529
8088, 8482, 8483, 8531, 8530
8089, 8483, 8484, 8532, 8531
8090, 8484, 8485, 8533, 8532
8091, 8485, 8486, 8534, 8533
8092, 8486, 8487, 8535, 8534
8093, 8487, 8488, 8536, 8535
8094, 8488, 8489, 8537, 8536
8095, 8489, 8490, 8538, 8537
8096, 8490, 8491, 8539, 8538
8097, 8491, 8492, 8540, 8539
8098, 8492, 8493, 8541, 8540
8099, 8493, 8494, 8542, 8541
8100, 8494, 8495, 8543, 8542
8101, 8495, 8496, 8544, 8543
8102, 8496, 8497, 8545, 8544
8103, 8497, 8498, 8546, 8545
8104, 8498, 8499, 8547, 8546
8105, 8499, 8500, 8548, 8547
8106, 8500, 8501, 8549, 8548
8107, 8501, 8502, 8550, 8549
8108, 8502, 8503, 8551, 8550
8109, 8503, 8504, 8552, 8551
8110, 8504, 8505, 8553, 8552
8111, 8505, 8506, 8554, 8553
8112, 8506, 8507, 8555, 8554
8113, 8507, 8508, 8556, 8555
8114, 8508, 8509, 8557, 8556
8115, 8509, 8510, 8558, 8557
8116, 8510, 8511, 8559, 8558
8117, 8511, 8512, 8560, 8559
8118, 8512, 8513, 8561, 8560
8119, 8513, 8514, 8562, 8561
8120, 8514, 8515, 8563, 8562
8121, 8515, 8516, 8564, 8563
8122, 8516, 8517, 8565, 8564
8123, 8517, 8518, 8566, 8565
8124, 8518, 8519, 8567, 8566
8125, 8519, 8520, 8568, 8567
8126, 8520, 8521, 8569, 8568
8127, 8521, 8522, 8570, 8569
8128, 8522, 8523, 8571, 8570
8129, 8523, 8524, 8572, 8571
8130, 8524, 8525, 8573, 8572
8131, 8525, 8526, 8574, 8573
8132, 8526, 8527, 8575, 8574
8133, 8527, 8528, 8576, 8575
8134, 8528,  604,  605, 8576
8135,  668, 8529, 8577,  667
8136, 8529, 8530, 8578, 8577
8137, 8530, 8531, 8579, 8578
8138, 8531, 8532, 8580, 8579
8139, 8532, 8533, 8581, 8580
8140, 8533, 8534, 8582, 8581
8141, 8534, 8535, 8583, 8582
8142, 8535, 8536, 8584, 8583
8143, 8536, 8537, 8585, 8584
8144, 8537, 8538, 8586, 8585
8145, 8538, 8539, 8587, 8586
8146, 8539, 8540, 8588, 8587
8147, 8540, 8541, 8589, 8588
8148, 8541, 8542, 8590, 8589
8149, 8542, 8543, 8591, 8590
8150, 8543, 8544, 8592, 8591
8151, 8544, 8545, 8593, 8592
8152, 8545, 8546, 8594, 8593
8153, 8546, 8547, 8595, 8594
8154, 8547, 8548, 8596, 8595
8155, 8548, 8549, 8597, 8596
8156, 8549, 8550, 8598, 8597
8157, 8550, 8551, 8599, 8598
8158, 8551, 8552, 8600, 8599
8159, 8552, 8553, 8601, 8600
8160, 8553, 8554, 8602, 8601
8161, 8554, 8555, 8603, 8602
8162, 8555, 8556, 8604, 8603
8163, 8556, 8557, 8605, 8604
8164, 8557, 8558, 8606, 8605
8165, 8558, 8559, 8607, 8606
8166, 8559, 8560, 8608, 8607
8167, 8560, 8561, 8609, 8608
8168, 8561, 8562, 8610, 8609
8169, 8562, 8563, 8611, 8610
8170, 8563, 8564, 8612, 8611
8171, 8564, 8565, 8613, 8612
8172, 8565, 8566, 8614, 8613
8173, 8566, 8567, 8615, 8614
8174, 8567, 8568, 8616, 8615
8175, 8568, 8569, 8617, 8616
8176, 8569, 8570, 8618, 8617
8177, 8570, 8571, 8619, 8618
8178, 8571, 8572, 8620, 8619
8179, 8572, 8573, 8621, 8620
8180, 8573, 8574, 8622, 8621
8181, 8574, 8575, 8623, 8622
8182, 8575, 8576, 8624, 8623
8183, 8576,  605,  606, 8624
8184,  667, 8577, 8625,  666
8185, 8577, 8578, 8626, 8625
8186, 8578, 8579, 8627, 8626
8187, 8579, 8580, 8628, 8627
8188, 8580, 8581, 8629, 8628
8189, 8581, 8582, 8630, 8629
8190, 8582, 8583, 8631, 8630
8191, 8583, 8584, 8632, 8631
8192, 8584, 8585, 8633, 8632
8193, 8585, 8586, 8634, 8633
8194, 8586, 8587, 8635, 8634
8195, 8587, 8588, 8636, 8635
8196, 8588, 8589, 8637, 8636
8197, 8589, 8590, 8638, 8637
8198, 8590, 8591, 8639, 8638
8199, 8591, 8592, 8640, 8639
8200, 8592, 8593, 8641, 8640
8201, 8593, 8594, 8642, 8641
8202, 8594, 8595, 8643, 8642
8203, 8595, 8596, 8644, 8643
8204, 8596, 8597, 8645, 8644
8205, 8597, 8598, 8646, 8645
8206, 8598, 8599, 8647, 8646
8207, 8599, 8600, 8648, 8647
8208, 8600, 8601, 8649, 8648
8209, 8601, 8602, 8650, 8649
8210, 8602, 8603, 8651, 8650
8211, 8603, 8604, 8652, 8651
8212, 8604, 8605, 8653, 8652
8213, 8605, 8606, 8654, 8653
8214, 8606, 8607, 8655, 8654
8215, 8607, 8608, 8656, 8655
8216, 8608, 8609, 8657, 8656
8217, 8609, 8610, 8658, 8657
8218, 8610, 8611, 8659, 8658
8219, 8611, 8612, 8660, 8659
8220, 8612, 8613, 8661, 8660
8221, 8613, 8614, 8662, 8661
8222, 8614, 8615, 8663, 8662
8223, 8615, 8616, 8664, 8663
8224, 8616, 8617, 8665, 8664
8225, 8617, 8618, 8666, 8665
8226, 8618, 8619, 8667, 8666
8227, 8619, 8620, 8668, 8667
8228, 8620, 8621, 8669, 8668
8229, 8621, 8622, 8670, 8669
8230, 8622, 8623, 8671, 8670
8231, 8623, 8624, 8672, 8671
8232, 8624,  606,  607, 8672
8233,  666, 8625, 8673,  665
8234, 8625, 8626, 8674, 8673
8235, 8626, 8627, 8675, 8674
8236, 8627, 8628, 8676, 8675
8237, 8628, 8629, 8677, 8676
8238, 8629, 8630, 8678, 8677
8239, 8630, 8631, 8679, 8678
8240, 8631, 8632, 8680, 8679
8241, 8632, 8633, 8681, 8680
8242, 8633, 8634, 8682, 8681
8243, 8634, 8635, 8683, 8682
8244, 8635, 8636, 8684, 8683
8245, 8636, 8637, 8685, 8684
8246, 8637, 8638, 8686, 8685
8247, 8638, 8639, 8687, 8686
8248, 8639, 8640, 8688, 8687
8249, 8640, 8641, 8689, 8688
8250, 8641, 8642, 8690, 8689
8251, 8642, 8643, 8691, 8690
8252, 8643, 8644, 8692, 8691
8253, 8644, 8645, 8693, 8692
8254, 8645, 8646, 8694, 8693
8255, 8646, 8647, 8695, 8694
8256, 8647, 8648, 8696, 8695
8257, 8648, 8649, 8697, 8696
8258, 8649, 8650, 8698, 8697
8259, 8650, 8651, 8699, 8698
8260, 8651, 8652, 8700, 8699
8261, 8652, 8653, 8701, 8700
8262, 8653, 8654, 8702, 8701
8263, 8654, 8655, 8703, 8702
8264, 8655, 8656, 8704, 8703
8265, 8656, 8657, 8705, 8704
8266, 8657, 8658, 8706, 8705
8267, 8658, 8659, 8707, 8706
8268, 8659, 8660, 8708, 8707
8269, 8660, 8661, 8709, 8708
8270, 8661, 8662, 8710, 8709
8271, 8662, 8663, 8711, 8710
8272, 8663, 8664, 8712, 8711
8273, 8664, 8665, 8713, 8712
8274, 8665, 8666, 8714, 8713
8275, 8666, 8667, 8715, 8714
8276, 8667, 8668, 8716, 8715
8277, 8668, 8669, 8717, 8716
8278, 8669, 8670, 8718, 8717
8279, 8670, 8671, 8719, 8718
8280, 8671, 8672, 8720, 8719
8281, 8672,  607,  608, 8720
8282,  665, 8673, 8721,  664
8283, 8673, 8674, 8722, 8721
8284, 8674, 8675, 8723, 8722
8285, 8675, 8676, 8724, 8723
8286, 8676, 8677, 8725, 8724
8287, 8677, 8678, 8726, 8725
8288, 8678, 8679, 8727, 8726
8289, 8679, 8680, 8728, 8727
8290, 8680, 8681, 8729, 8728
8291, 8681, 8682, 8730, 8729
8292, 8682, 8683, 8731, 8730
8293, 8683, 8684, 8732, 8731
8294, 8684, 8685, 8733, 8732
8295, 8685, 8686, 8734, 8733
8296, 8686, 8687, 8735, 8734
8297, 8687, 8688, 8736, 8735
8298, 8688, 8689, 8737, 8736
8299, 8689, 8690, 8738, 8737
8300, 8690, 8691, 8739, 8738
8301, 8691, 8692, 8740, 8739
8302, 8692, 8693, 8741, 8740
8303, 8693, 8694, 8742, 8741
8304, 8694, 8695, 8743, 8742
8305, 8695, 8696, 8744, 8743
8306, 8696, 8697, 8745, 8744
8307, 8697, 8698, 8746, 8745
8308, 8698, 8699, 8747, 8746
8309, 8699, 8700, 8748, 8747
8310, 8700, 8701, 8749, 8748
8311, 8701, 8702, 8750, 8749
8312, 8702, 8703, 8751, 8750
8313, 8703, 8704, 8752, 8751
8314, 8704, 8705, 8753, 8752
8315, 8705, 8706, 8754, 8753
8316, 8706, 8707, 8755, 8754
8317, 8707, 8708, 8756, 8755
8318, 8708, 8709, 8757, 8756
8319, 8709, 8710, 8758, 8757
8320, 8710, 8711, 8759, 8758
8321, 8711, 8712, 8760, 8759
8322, 8712, 8713, 8761, 8760
8323, 8713, 8714, 8762, 8761
8324, 8714, 8715, 8763, 8762
8325, 8715, 8716, 8764, 8763
8326, 8716, 8717, 8765, 8764
8327, 8717, 8718, 8766, 8765
8328, 8718, 8719, 8767, 8766
8329, 8719, 8720, 8768, 8767
8330, 8720,  608,  609, 8768
8331,  664, 8721, 8769,  663
8332, 8721, 8722, 8770, 8769
8333, 8722, 8723, 8771, 8770
8334, 8723, 8724, 8772, 8771
8335, 8724, 8725, 8773, 8772
8336, 8725, 8726, 8774, 8773
8337, 8726, 8727, 8775, 8774
8338, 8727, 8728, 8776, 8775
8339, 8728, 8729, 8777, 8776
8340, 8729, 8730, 8778, 8777
8341, 8730, 8731, 8779, 8778
8342, 8731, 8732, 8780, 8779
8343, 8732, 8733, 8781, 8780
8344, 8733, 8734, 8782, 8781
8345, 8734, 8735, 8783, 8782
8346, 8735, 8736, 8784, 8783
8347, 8736, 8737, 8785, 8784
8348, 8737, 8738, 8786, 8785
8349, 8738, 8739, 8787, 8786
8350, 8739, 8740, 8788, 8787
8351, 8740, 8741, 8789, 8788
8352, 8741, 8742, 8790, 8789
8353, 8742, 8743, 8791, 8790
8354, 8743, 8744, 8792, 8791
8355, 8744, 8745, 8793, 8792
8356, 8745, 8746, 8794, 8793
8357, 8746, 8747, 8795, 8794
8358, 8747, 8748, 8796, 8795
8359, 8748, 8749, 8797, 8796
8360, 8749, 8750, 8798, 8797
8361, 8750, 8751, 8799, 8798
8362, 8751, 8752, 8800, 8799
8363, 8752, 8753, 8801, 8800
8364, 8753, 8754, 8802, 8801
8365, 8754, 8755, 8803, 8802
8366, 8755, 8756, 8804, 8803
8367, 8756, 8757, 8805, 8804
8368, 8757, 8758, 8806, 8805
8369, 8758, 8759, 8807, 8806
8370, 8759, 8760, 8808, 8807
8371, 8760, 8761, 8809, 8808
8372, 8761, 8762, 8810, 8809
8373, 8762, 8763, 8811, 8810
8374, 8763, 8764, 8812, 8811
8375, 8764, 8765, 8813, 8812
8376, 8765, 8766, 8814, 8813
8377, 8766, 8767, 8815, 8814
8378, 8767, 8768, 8816, 8815
8379, 8768,  609,  610, 8816
8380,  663, 8769, 8817,  662
8381, 8769, 8770, 8818, 8817
8382, 8770, 8771, 8819, 8818
8383, 8771, 8772, 8820, 8819
8384, 8772, 8773, 8821, 8820
8385, 8773, 8774, 8822, 8821
8386, 8774, 8775, 8823, 8822
8387, 8775, 8776, 8824, 8823
8388, 8776, 8777, 8825, 8824
8389, 8777, 8778, 8826, 8825
8390, 8778, 8779, 8827, 8826
8391, 8779, 8780, 8828, 8827
8392, 8780, 8781, 8829, 8828
8393, 8781, 8782, 8830, 8829
8394, 8782, 8783, 8831, 8830
8395, 8783, 8784, 8832, 8831
8396, 8784, 8785, 8833, 8832
8397, 8785, 8786, 8834, 8833
8398, 8786, 8787, 8835, 8834
8399, 8787, 8788, 8836, 8835
8400, 8788, 8789, 8837, 8836
8401, 8789, 8790, 8838, 8837
8402, 8790, 8791, 8839, 8838
8403, 8791, 8792, 8840, 8839
8404, 8792, 8793, 8841, 8840
8405, 8793, 8794, 8842, 8841
8406, 8794, 8795, 8843, 8842
8407, 8795, 8796, 8844, 8843
8408, 8796, 8797, 8845, 8844
8409, 8797, 8798, 8846, 8845
8410, 8798, 8799, 8847, 8846
8411, 8799, 8800, 8848, 8847
8412, 8800, 8801, 8849, 8848
8413, 8801, 8802, 8850, 8849
8414, 8802, 8803, 8851, 8850
8415, 8803, 8804, 8852, 8851
8416, 8804, 8805, 8853, 8852
8417, 8805, 8806, 8854, 8853
8418, 8806, 8807, 8855, 8854
8419, 8807, 8808, 8856, 8855
8420, 8808, 8809, 8857, 8856
8421, 8809, 8810, 8858, 8857
8422, 8810, 8811, 8859, 8858
8423, 8811, 8812, 8860, 8859
8424, 8812, 8813, 8861, 8860
8425, 8813, 8814, 8862, 8861
8426, 8814, 8815, 8863, 8862
8427, 8815, 8816, 8864, 8863
8428, 8816,  610,  611, 8864
8429,  662, 8817, 8865,  661
8430, 8817, 8818, 8866, 8865
8431, 8818, 8819, 8867, 8866
8432, 8819, 8820, 8868, 8867
8433, 8820, 8821, 8869, 8868
8434, 8821, 8822, 8870, 8869
8435, 8822, 8823, 8871, 8870
8436, 8823, 8824, 8872, 8871
8437, 8824, 8825, 8873, 8872
8438, 8825, 8826, 8874, 8873
8439, 8826, 8827, 8875, 8874
8440, 8827, 8828, 8876, 8875
8441, 8828, 8829, 8877, 8876
8442, 8829, 8830, 8878, 8877
8443, 8830, 8831, 8879, 8878
8444, 8831, 8832, 8880, 8879
8445, 8832, 8833, 8881, 8880
8446, 8833, 8834, 8882, 8881
8447, 8834, 8835, 8883, 8882
8448, 8835, 8836, 8884, 8883
8449, 8836, 8837, 8885, 8884
8450, 8837, 8838, 8886, 8885
8451, 8838, 8839, 8887, 8886
8452, 8839, 8840, 8888, 8887
8453, 8840, 8841, 8889, 8888
8454, 8841, 8842, 8890, 8889
8455, 8842, 8843, 8891, 8890
8456, 8843, 8844, 8892, 8891
8457, 8844, 8845, 8893, 8892
8458, 8845, 8846, 8894, 8893
8459, 8846, 8847, 8895, 8894
8460, 8847, 8848, 8896, 8895
8461, 8848, 8849, 8897, 8896
8462, 8849, 8850, 8898, 8897
8463, 8850, 8851, 8899, 8898
8464, 8851, 8852, 8900, 8899
8465, 8852, 8853, 8901, 8900
8466, 8853, 8854, 8902, 8901
8467, 8854, 8855, 8903, 8902
8468, 8855, 8856, 8904, 8903
8469, 8856, 8857, 8905, 8904
8470, 8857, 8858, 8906, 8905
8471, 8858, 8859, 8907, 8906
8472, 8859, 8860, 8908, 8907
8473, 8860, 8861, 8909, 8908
8474, 8861, 8862, 8910, 8909
8475, 8862, 8863, 8911, 8910
8476, 8863, 8864, 8912, 8911
8477, 8864,  611,  612, 8912
8478,  661, 8865,  660,   14
8479, 8865, 8866,  659,  660
8480, 8866, 8867,  658,  659
8481, 8867, 8868,  657,  658
8482, 8868, 8869,  656,  657
8483, 8869, 8870,  655,  656
8484, 8870, 8871,  654,  655
8485, 8871, 8872,  653,  654
8486, 8872, 8873,  652,  653
8487, 8873, 8874,  651,  652
8488, 8874, 8875,  650,  651
8489, 8875, 8876,  649,  650
8490, 8876, 8877,  648,  649
8491, 8877, 8878,  647,  648
8492, 8878, 8879,  646,  647
8493, 8879, 8880,  645,  646
8494, 8880, 8881,  644,  645
8495, 8881, 8882,  643,  644
8496, 8882, 8883,  642,  643
8497, 8883, 8884,  641,  642
8498, 8884, 8885,  640,  641
8499, 8885, 8886,  639,  640
8500, 8886, 8887,  638,  639
8501, 8887, 8888,  637,  638
8502, 8888, 8889,  636,  637
8503, 8889, 8890,  635,  636
8504, 8890, 8891,  634,  635
8505, 8891, 8892,  633,  634
8506, 8892, 8893,  632,  633
8507, 8893, 8894,  631,  632
8508, 8894, 8895,  630,  631
8509, 8895, 8896,  629,  630
8510, 8896, 8897,  628,  629
8511, 8897, 8898,  627,  628
8512, 8898, 8899,  626,  627
8513, 8899, 8900,  625,  626
8514, 8900, 8901,  624,  625
8515, 8901, 8902,  623,  624
8516, 8902, 8903,  622,  623
8517, 8903, 8904,  621,  622
8518, 8904, 8905,  620,  621
8519, 8905, 8906,  619,  620
8520, 8906, 8907,  618,  619
8521, 8907, 8908,  617,  618
8522, 8908, 8909,  616,  617
8523, 8909, 8910,  615,  616
8524, 8910, 8911,  614,  615
8525, 8911, 8912,  613,  614
8526, 8912,  612,   13,  613
8527,    15,   689,  8913,   792
8528,   689,   690,  8914,  8913
8529,   690,   691,  8915,  8914
8530,   691,   692,  8916,  8915
8531,   692,   693,  8917,  8916
8532,   693,   694,  8918,  8917
8533,   694,   695,  8919,  8918
8534,   695,   696,  8920,  8919
8535,   696,   697,  8921,  8920
8536,   697,   698,  8922,  8921
8537,   698,   699,  8923,  8922
8538,   699,   700,  8924,  8923
8539,   700,   701,  8925,  8924
8540,   701,   702,  8926,  8925
8541,   702,   703,  8927,  8926
8542,   703,   704,  8928,  8927
8543,   704,   705,  8929,  8928
8544,   705,   706,  8930,  8929
8545,   706,   707,  8931,  8930
8546,   707,   708,  8932,  8931
8547,   708,   709,  8933,  8932
8548,   709,   710,  8934,  8933
8549,   710,   711,  8935,  8934
8550,   711,   712,  8936,  8935
8551,   712,   713,  8937,  8936
8552,   713,   714,  8938,  8937
8553,   714,   715,  8939,  8938
8554,   715,   716,  8940,  8939
8555,   716,   717,  8941,  8940
8556,   717,   718,  8942,  8941
8557,   718,   719,  8943,  8942
8558,   719,   720,  8944,  8943
8559,   720,   721,  8945,  8944
8560,   721,   722,  8946,  8945
8561,   722,   723,  8947,  8946
8562,   723,   724,  8948,  8947
8563,   724,   725,  8949,  8948
8564,   725,   726,  8950,  8949
8565,   726,   727,  8951,  8950
8566,   727,   728,  8952,  8951
8567,   728,   729,  8953,  8952
8568,   729,   730,  8954,  8953
8569,   730,   731,  8955,  8954
8570,   731,   732,  8956,  8955
8571,   732,   733,  8957,  8956
8572,   733,   734,  8958,  8957
8573,   734,   735,  8959,  8958
8574,   735,   736,  8960,  8959
8575,   736,    16,   737,  8960
8576,   792,  8913,  8961,   791
8577,  8913,  8914,  8962,  8961
8578,  8914,  8915,  8963,  8962
8579,  8915,  8916,  8964,  8963
8580,  8916,  8917,  8965,  8964
8581,  8917,  8918,  8966,  8965
8582,  8918,  8919,  8967,  8966
8583,  8919,  8920,  8968,  8967
8584,  8920,  8921,  8969,  8968
8585,  8921,  8922,  8970,  8969
8586,  8922,  8923,  8971,  8970
8587,  8923,  8924,  8972,  8971
8588,  8924,  8925,  8973,  8972
8589,  8925,  8926,  8974,  8973
8590,  8926,  8927,  8975,  8974
8591,  8927,  8928,  8976,  8975
8592,  8928,  8929,  8977,  8976
8593,  8929,  8930,  8978,  8977
8594,  8930,  8931,  8979,  8978
8595,  8931,  8932,  8980,  8979
8596,  8932,  8933,  8981,  8980
8597,  8933,  8934,  8982,  8981
8598,  8934,  8935,  8983,  8982
8599,  8935,  8936,  8984,  8983
8600,  8936,  8937,  8985,  8984
8601,  8937,  8938,  8986,  8985
8602,  8938,  8939,  8987,  8986
8603,  8939,  8940,  8988,  8987
8604,  8940,  8941,  8989,  8988
8605,  8941,  8942,  8990,  8989
8606,  8942,  8943,  8991,  8990
8607,  8943,  8944,  8992,  8991
8608,  8944,  8945,  8993,  8992
8609,  8945,  8946,  8994,  8993
8610,  8946,  8947,  8995,  8994
8611,  8947,  8948,  8996,  8995
8612,  8948,  8949,  8997,  8996
8613,  8949,  8950,  8998,  8997
8614,  8950,  8951,  8999,  8998
8615,  8951,  8952,  9000,  8999
8616,  8952,  8953,  9001,  9000
8617,  8953,  8954,  9002,  9001
8618,  8954,  8955,  9003,  9002
8619,  8955,  8956,  9004,  9003
8620,  8956,  8957,  9005,  9004
8621,  8957,  8958,  9006,  9005
8622,  8958,  8959,  9007,  9006
8623,  8959,  8960,  9008,  9007
8624,  8960,   737,   738,  9008
8625,   791,  8961,  9009,   790
8626,  8961,  8962,  9010,  9009
8627,  8962,  8963,  9011,  9010
8628,  8963,  8964,  9012,  9011
8629,  8964,  8965,  9013,  9012
8630,  8965,  8966,  9014,  9013
8631,  8966,  8967,  9015,  9014
8632,  8967,  8968,  9016,  9015
8633,  8968,  8969,  9017,  9016
8634,  8969,  8970,  9018,  9017
8635,  8970,  8971,  9019,  9018
8636,  8971,  8972,  9020,  9019
8637,  8972,  8973,  9021,  9020
8638,  8973,  8974,  9022,  9021
8639,  8974,  8975,  9023,  9022
8640,  8975,  8976,  9024,  9023
8641,  8976,  8977,  9025,  9024
8642,  8977,  8978,  9026,  9025
8643,  8978,  8979,  9027,  9026
8644,  8979,  8980,  9028,  9027
8645,  8980,  8981,  9029,  9028
8646,  8981,  8982,  9030,  9029
8647,  8982,  8983,  9031,  9030
8648,  8983,  8984,  9032,  9031
8649,  8984,  8985,  9033,  9032
8650,  8985,  8986,  9034,  9033
8651,  8986,  8987,  9035,  9034
8652,  8987,  8988,  9036,  9035
8653,  8988,  8989,  9037,  9036
8654,  8989,  8990,  9038,  9037
8655,  8990,  8991,  9039,  9038
8656,  8991,  8992,  9040,  9039
8657,  8992,  8993,  9041,  9040
8658,  8993,  8994,  9042,  9041
8659,  8994,  8995,  9043,  9042
8660,  8995,  8996,  9044,  9043
8661,  8996,  8997,  9045,  9044
8662,  8997,  8998,  9046,  9045
8663,  8998,  8999,  9047,  9046
8664,  8999,  9000,  9048,  9047
8665,  9000,  9001,  9049,  9048
8666,  9001,  9002,  9050,  9049
8667,  9002,  9003,  9051,  9050
8668,  9003,  9004,  9052,  9051
8669,  9004,  9005,  9053,  9052
8670,  9005,  9006,  9054,  9053
8671,  9006,  9007,  9055,  9054
8672,  9007,  9008,  9056,  9055
8673,  9008,   738,   739,  9056
8674,   790,  9009,  9057,   789
8675,  9009,  9010,  9058,  9057
8676,  9010,  9011,  9059,  9058
8677,  9011,  9012,  9060,  9059
8678,  9012,  9013,  9061,  9060
8679,  9013,  9014,  9062,  9061
8680,  9014,  9015,  9063,  9062
8681,  9015,  9016,  9064,  9063
8682,  9016,  9017,  9065,  9064
8683,  9017,  9018,  9066,  9065
8684,  9018,  9019,  9067,  9066
8685,  9019,  9020,  9068,  9067
8686,  9020,  9021,  9069,  9068
8687,  9021,  9022,  9070,  9069
8688,  9022,  9023,  9071,  9070
8689,  9023,  9024,  9072,  9071
8690,  9024,  9025,  9073,  9072
8691,  9025,  9026,  9074,  9073
8692,  9026,  9027,  9075,  9074
8693,  9027,  9028,  9076,  9075
8694,  9028,  9029,  9077,  9076
8695,  9029,  9030,  9078,  9077
8696,  9030,  9031,  9079,  9078
8697,  9031,  9032,  9080,  9079
8698,  9032,  9033,  9081,  9080
8699,  9033,  9034,  9082,  9081
8700,  9034,  9035,  9083,  9082
8701,  9035,  9036,  9084,  9083
8702,  9036,  9037,  9085,  9084
8703,  9037,  9038,  9086,  9085
8704,  9038,  9039,  9087,  9086
8705,  9039,  9040,  9088,  9087
8706,  9040,  9041,  9089,  9088
8707,  9041,  9042,  9090,  9089
8708,  9042,  9043,  9091,  9090
8709,  9043,  9044,  9092,  9091
8710,  9044,  9045,  9093,  9092
8711,  9045,  9046,  9094,  9093
8712,  9046,  9047,  9095,  9094
8713,  9047,  9048,  9096,  9095
8714,  9048,  9049,  9097,  9096
8715,  9049,  9050,  9098,  9097
8716,  9050,  9051,  9099,  9098
8717,  9051,  9052,  9100,  9099
8718,  9052,  9053,  9101,  9100
8719,  9053,  9054,  9102,  9101
8720,  9054,  9055,  9103,  9102
8721,  9055,  9056,  9104,  9103
8722,  9056,   739,   740,  9104
8723,   789,  9057,  9105,   788
8724,  9057,  9058,  9106,  9105
8725,  9058,  9059,  9107,  9106
8726,  9059,  9060,  9108,  9107
8727,  9060,  9061,  9109,  9108
8728,  9061,  9062,  9110,  9109
8729,  9062,  9063,  9111,  9110
8730,  9063,  9064,  9112,  9111
8731,  9064,  9065,  9113,  9112
8732,  9065,  9066,  9114,  9113
8733,  9066,  9067,  9115,  9114
8734,  9067,  9068,  9116,  9115
8735,  9068,  9069,  9117,  9116
8736,  9069,  9070,  9118,  9117
8737,  9070,  9071,  9119,  9118
8738,  9071,  9072,  9120,  9119
8739,  9072,  9073,  9121,  9120
8740,  9073,  9074,  9122,  9121
8741,  9074,  9075,  9123,  9122
8742,  9075,  9076,  9124,  9123
8743,  9076,  9077,  9125,  9124
8744,  9077,  9078,  9126,  9125
8745,  9078,  9079,  9127,  9126
8746,  9079,  9080,  9128,  9127
8747,  9080,  9081,  9129,  9128
8748,  9081,  9082,  9130,  9129
8749,  9082,  9083,  9131,  9130
8750,  9083,  9084,  9132,  9131
8751,  9084,  9085,  9133,  9132
8752,  9085,  9086,  9134,  9133
8753,  9086,  9087,  9135,  9134
8754,  9087,  9088,  9136,  9135
8755,  9088,  9089,  9137,  9136
8756,  9089,  9090,  9138,  9137
8757,  9090,  9091,  9139,  9138
8758,  9091,  9092,  9140,  9139
8759,  9092,  9093,  9141,  9140
8760,  9093,  9094,  9142,  9141
8761,  9094,  9095,  9143,  9142
8762,  9095,  9096,  9144,  9143
8763,  9096,  9097,  9145,  9144
8764,  9097,  9098,  9146,  9145
8765,  9098,  9099,  9147,  9146
8766,  9099,  9100,  9148,  9147
8767,  9100,  9101,  9149,  9148
8768,  9101,  9102,  9150,  9149
8769,  9102,  9103,  9151,  9150
8770,  9103,  9104,  9152,  9151
8771,  9104,   740,   741,  9152
8772,   788,  9105,  9153,   787
8773,  9105,  9106,  9154,  9153
8774,  9106,  9107,  9155,  9154
8775,  9107,  9108,  9156,  9155
8776,  9108,  9109,  9157,  9156
8777,  9109,  9110,  9158,  9157
8778,  9110,  9111,  9159,  9158
8779,  9111,  9112,  9160,  9159
8780,  9112,  9113,  9161,  9160
8781,  9113,  9114,  9162,  9161
8782,  9114,  9115,  9163,  9162
8783,  9115,  9116,  9164,  9163
8784,  9116,  9117,  9165,  9164
8785,  9117,  9118,  9166,  9165
8786,  9118,  9119,  9167,  9166
8787,  9119,  9120,  9168,  9167
8788,  9120,  9121,  9169,  9168
8789,  9121,  9122,  9170,  9169
8790,  9122,  9123,  9171,  9170
8791,  9123,  9124,  9172,  9171
8792,  9124,  9125,  9173,  9172
8793,  9125,  9126,  9174,  9173
8794,  9126,  9127,  9175,  9174
8795,  9127,  9128,  9176,  9175
8796,  9128,  9129,  9177,  9176
8797,  9129,  9130,  9178,  9177
8798,  9130,  9131,  9179,  9178
8799,  9131,  9132,  9180,  9179
8800,  9132,  9133,  9181,  9180
8801,  9133,  9134,  9182,  9181
8802,  9134,  9135,  9183,  9182
8803,  9135,  9136,  9184,  9183
8804,  9136,  9137,  9185,  9184
8805,  9137,  9138,  9186,  9185
8806,  9138,  9139,  9187,  9186
8807,  9139,  9140,  9188,  9187
8808,  9140,  9141,  9189,  9188
8809,  9141,  9142,  9190,  9189
8810,  9142,  9143,  9191,  9190
8811,  9143,  9144,  9192,  9191
8812,  9144,  9145,  9193,  9192
8813,  9145,  9146,  9194,  9193
8814,  9146,  9147,  9195,  9194
8815,  9147,  9148,  9196,  9195
8816,  9148,  9149,  9197,  9196
8817,  9149,  9150,  9198,  9197
8818,  9150,  9151,  9199,  9198
8819,  9151,  9152,  9200,  9199
8820,  9152,   741,   742,  9200
8821,   787,  9153,  9201,   786
8822,  9153,  9154,  9202,  9201
8823,  9154,  9155,  9203,  9202
8824,  9155,  9156,  9204,  9203
8825,  9156,  9157,  9205,  9204
8826,  9157,  9158,  9206,  9205
8827,  9158,  9159,  9207,  9206
8828,  9159,  9160,  9208,  9207
8829,  9160,  9161,  9209,  9208
8830,  9161,  9162,  9210,  9209
8831,  9162,  9163,  9211,  9210
8832,  9163,  9164,  9212,  9211
8833,  9164,  9165,  9213,  9212
8834,  9165,  9166,  9214,  9213
8835,  9166,  9167,  9215,  9214
8836,  9167,  9168,  9216,  9215
8837,  9168,  9169,  9217,  9216
8838,  9169,  9170,  9218,  9217
8839,  9170,  9171,  9219,  9218
8840,  9171,  9172,  9220,  9219
8841,  9172,  9173,  9221,  9220
8842,  9173,  9174,  9222,  9221
8843,  9174,  9175,  9223,  9222
8844,  9175,  9176,  9224,  9223
8845,  9176,  9177,  9225,  9224
8846,  9177,  9178,  9226,  9225
8847,  9178,  9179,  9227,  9226
8848,  9179,  9180,  9228,  9227
8849,  9180,  9181,  9229,  9228
8850,  9181,  9182,  9230,  9229
8851,  9182,  9183,  9231,  9230
8852,  9183,  9184,  9232,  9231
8853,  9184,  9185,  9233,  9232
8854,  9185,  9186,  9234,  9233
8855,  9186,  9187,  9235,  9234
8856,  9187,  9188,  9236,  9235
8857,  9188,  9189,  9237,  9236
8858,  9189,  9190,  9238,  9237
8859,  9190,  9191,  9239,  9238
8860,  9191,  9192,  9240,  9239
8861,  9192,  9193,  9241,  9240
8862,  9193,  9194,  9242,  9241
8863,  9194,  9195,  9243,  9242
8864,  9195,  9196,  9244,  9243
8865,  9196,  9197,  9245,  9244
8866,  9197,  9198,  9246,  9245
8867,  9198,  9199,  9247,  9246
8868,  9199,  9200,  9248,  9247
8869,  9200,   742,   743,  9248
8870,   786,  9201,  9249,   785
8871,  9201,  9202,  9250,  9249
8872,  9202,  9203,  9251,  9250
8873,  9203,  9204,  9252,  9251
8874,  9204,  9205,  9253,  9252
8875,  9205,  9206,  9254,  9253
8876,  9206,  9207,  9255,  9254
8877,  9207,  9208,  9256,  9255
8878,  9208,  9209,  9257,  9256
8879,  9209,  9210,  9258,  9257
8880,  9210,  9211,  9259,  9258
8881,  9211,  9212,  9260,  9259
8882,  9212,  9213,  9261,  9260
8883,  9213,  9214,  9262,  9261
8884,  9214,  9215,  9263,  9262
8885,  9215,  9216,  9264,  9263
8886,  9216,  9217,  9265,  9264
8887,  9217,  9218,  9266,  9265
8888,  9218,  9219,  9267,  9266
8889,  9219,  9220,  9268,  9267
8890,  9220,  9221,  9269,  9268
8891,  9221,  9222,  9270,  9269
8892,  9222,  9223,  9271,  9270
8893,  9223,  9224,  9272,  9271
8894,  9224,  9225,  9273,  9272
8895,  9225,  9226,  9274,  9273
8896,  9226,  9227,  9275,  9274
8897,  9227,  9228,  9276,  9275
8898,  9228,  9229,  9277,  9276
8899,  9229,  9230,  9278,  9277
8900,  9230,  9231,  9279,  9278
8901,  9231,  9232,  9280,  9279
8902,  9232,  9233,  9281,  9280
8903,  9233,  9234,  9282,  9281
8904,  9234,  9235,  9283,  9282
8905,  9235,  9236,  9284,  9283
8906,  9236,  9237,  9285,  9284
8907,  9237,  9238,  9286,  9285
8908,  9238,  9239,  9287,  9286
8909,  9239,  9240,  9288,  9287
8910,  9240,  9241,  9289,  9288
8911,  9241,  9242,  9290,  9289
8912,  9242,  9243,  9291,  9290
8913,  9243,  9244,  9292,  9291
8914,  9244,  9245,  9293,  9292
8915,  9245,  9246,  9294,  9293
8916,  9246,  9247,  9295,  9294
8917,  9247,  9248,  9296,  9295
8918,  9248,   743,   744,  9296
8919,   785,  9249,  9297,   784
8920,  9249,  9250,  9298,  9297
8921,  9250,  9251,  9299,  9298
8922,  9251,  9252,  9300,  9299
8923,  9252,  9253,  9301,  9300
8924,  9253,  9254,  9302,  9301
8925,  9254,  9255,  9303,  9302
8926,  9255,  9256,  9304,  9303
8927,  9256,  9257,  9305,  9304
8928,  9257,  9258,  9306,  9305
8929,  9258,  9259,  9307,  9306
8930,  9259,  9260,  9308,  9307
8931,  9260,  9261,  9309,  9308
8932,  9261,  9262,  9310,  9309
8933,  9262,  9263,  9311,  9310
8934,  9263,  9264,  9312,  9311
8935,  9264,  9265,  9313,  9312
8936,  9265,  9266,  9314,  9313
8937,  9266,  9267,  9315,  9314
8938,  9267,  9268,  9316,  9315
8939,  9268,  9269,  9317,  9316
8940,  9269,  9270,  9318,  9317
8941,  9270,  9271,  9319,  9318
8942,  9271,  9272,  9320,  9319
8943,  9272,  9273,  9321,  9320
8944,  9273,  9274,  9322,  9321
8945,  9274,  9275,  9323,  9322
8946,  9275,  9276,  9324,  9323
8947,  9276,  9277,  9325,  9324
8948,  9277,  9278,  9326,  9325
8949,  9278,  9279,  9327,  9326
8950,  9279,  9280,  9328,  9327
8951,  9280,  9281,  9329,  9328
8952,  9281,  9282,  9330,  9329
8953,  9282,  9283,  9331,  9330
8954,  9283,  9284,  9332,  9331
8955,  9284,  9285,  9333,  9332
8956,  9285,  9286,  9334,  9333
8957,  9286,  9287,  9335,  9334
8958,  9287,  9288,  9336,  9335
8959,  9288,  9289,  9337,  9336
8960,  9289,  9290,  9338,  9337
8961,  9290,  9291,  9339,  9338
8962,  9291,  9292,  9340,  9339
8963,  9292,  9293,  9341,  9340
8964,  9293,  9294,  9342,  9341
8965,  9294,  9295,  9343,  9342
8966,  9295,  9296,  9344,  9343
8967,  9296,   744,   745,  9344
8968,   784,  9297,  9345,   783
8969,  9297,  9298,  9346,  9345
8970,  9298,  9299,  9347,  9346
8971,  9299,  9300,  9348,  9347
8972,  9300,  9301,  9349,  9348
8973,  9301,  9302,  9350,  9349
8974,  9302,  9303,  9351,  9350
8975,  9303,  9304,  9352,  9351
8976,  9304,  9305,  9353,  9352
8977,  9305,  9306,  9354,  9353
8978,  9306,  9307,  9355,  9354
8979,  9307,  9308,  9356,  9355
8980,  9308,  9309,  9357,  9356
8981,  9309,  9310,  9358,  9357
8982,  9310,  9311,  9359,  9358
8983,  9311,  9312,  9360,  9359
8984,  9312,  9313,  9361,  9360
8985,  9313,  9314,  9362,  9361
8986,  9314,  9315,  9363,  9362
8987,  9315,  9316,  9364,  9363
8988,  9316,  9317,  9365,  9364
8989,  9317,  9318,  9366,  9365
8990,  9318,  9319,  9367,  9366
8991,  9319,  9320,  9368,  9367
8992,  9320,  9321,  9369,  9368
8993,  9321,  9322,  9370,  9369
8994,  9322,  9323,  9371,  9370
8995,  9323,  9324,  9372,  9371
8996,  9324,  9325,  9373,  9372
8997,  9325,  9326,  9374,  9373
8998,  9326,  9327,  9375,  9374
8999,  9327,  9328,  9376,  9375
9000,  9328,  9329,  9377,  9376
9001,  9329,  9330,  9378,  9377
9002,  9330,  9331,  9379,  9378
9003,  9331,  9332,  9380,  9379
9004,  9332,  9333,  9381,  9380
9005,  9333,  9334,  9382,  9381
9006,  9334,  9335,  9383,  9382
9007,  9335,  9336,  9384,  9383
9008,  9336,  9337,  9385,  9384
9009,  9337,  9338,  9386,  9385
9010,  9338,  9339,  9387,  9386
9011,  9339,  9340,  9388,  9387
9012,  9340,  9341,  9389,  9388
9013,  9341,  9342,  9390,  9389
9014,  9342,  9343,  9391,  9390
9015,  9343,  9344,  9392,  9391
9016,  9344,   745,   746,  9392
9017,   783,  9345,  9393,   782
9018,  9345,  9346,  9394,  9393
9019,  9346,  9347,  9395,  9394
9020,  9347,  9348,  9396,  9395
9021,  9348,  9349,  9397,  9396
9022,  9349,  9350,  9398,  9397
9023,  9350,  9351,  9399,  9398
9024,  9351,  9352,  9400,  9399
9025,  9352,  9353,  9401,  9400
9026,  9353,  9354,  9402,  9401
9027,  9354,  9355,  9403,  9402
9028,  9355,  9356,  9404,  9403
9029,  9356,  9357,  9405,  9404
9030,  9357,  9358,  9406,  9405
9031,  9358,  9359,  9407,  9406
9032,  9359,  9360,  9408,  9407
9033,  9360,  9361,  9409,  9408
9034,  9361,  9362,  9410,  9409
9035,  9362,  9363,  9411,  9410
9036,  9363,  9364,  9412,  9411
9037,  9364,  9365,  9413,  9412
9038,  9365,  9366,  9414,  9413
9039,  9366,  9367,  9415,  9414
9040,  9367,  9368,  9416,  9415
9041,  9368,  9369,  9417,  9416
9042,  9369,  9370,  9418,  9417
9043,  9370,  9371,  9419,  9418
9044,  9371,  9372,  9420,  9419
9045,  9372,  9373,  9421,  9420
9046,  9373,  9374,  9422,  9421
9047,  9374,  9375,  9423,  9422
9048,  9375,  9376,  9424,  9423
9049,  9376,  9377,  9425,  9424
9050,  9377,  9378,  9426,  9425
9051,  9378,  9379,  9427,  9426
9052,  9379,  9380,  9428,  9427
9053,  9380,  9381,  9429,  9428
9054,  9381,  9382,  9430,  9429
9055,  9382,  9383,  9431,  9430
9056,  9383,  9384,  9432,  9431
9057,  9384,  9385,  9433,  9432
9058,  9385,  9386,  9434,  9433
9059,  9386,  9387,  9435,  9434
9060,  9387,  9388,  9436,  9435
9061,  9388,  9389,  9437,  9436
9062,  9389,  9390,  9438,  9437
9063,  9390,  9391,  9439,  9438
9064,  9391,  9392,  9440,  9439
9065,  9392,   746,   747,  9440
9066,   782,  9393,  9441,   781
9067,  9393,  9394,  9442,  9441
9068,  9394,  9395,  9443,  9442
9069,  9395,  9396,  9444,  9443
9070,  9396,  9397,  9445,  9444
9071,  9397,  9398,  9446,  9445
9072,  9398,  9399,  9447,  9446
9073,  9399,  9400,  9448,  9447
9074,  9400,  9401,  9449,  9448
9075,  9401,  9402,  9450,  9449
9076,  9402,  9403,  9451,  9450
9077,  9403,  9404,  9452,  9451
9078,  9404,  9405,  9453,  9452
9079,  9405,  9406,  9454,  9453
9080,  9406,  9407,  9455,  9454
9081,  9407,  9408,  9456,  9455
9082,  9408,  9409,  9457,  9456
9083,  9409,  9410,  9458,  9457
9084,  9410,  9411,  9459,  9458
9085,  9411,  9412,  9460,  9459
9086,  9412,  9413,  9461,  9460
9087,  9413,  9414,  9462,  9461
9088,  9414,  9415,  9463,  9462
9089,  9415,  9416,  9464,  9463
9090,  9416,  9417,  9465,  9464
9091,  9417,  9418,  9466,  9465
9092,  9418,  9419,  9467,  9466
9093,  9419,  9420,  9468,  9467
9094,  9420,  9421,  9469,  9468
9095,  9421,  9422,  9470,  9469
9096,  9422,  9423,  9471,  9470
9097,  9423,  9424,  9472,  9471
9098,  9424,  9425,  9473,  9472
9099,  9425,  9426,  9474,  9473
9100,  9426,  9427,  9475,  9474
9101,  9427,  9428,  9476,  9475
9102,  9428,  9429,  9477,  9476
9103,  9429,  9430,  9478,  9477
9104,  9430,  9431,  9479,  9478
9105,  9431,  9432,  9480,  9479
9106,  9432,  9433,  9481,  9480
9107,  9433,  9434,  9482,  9481
9108,  9434,  9435,  9483,  9482
9109,  9435,  9436,  9484,  9483
9110,  9436,  9437,  9485,  9484
9111,  9437,  9438,  9486,  9485
9112,  9438,  9439,  9487,  9486
9113,  9439,  9440,  9488,  9487
9114,  9440,   747,   748,  9488
9115,   781,  9441,  9489,   780
9116,  9441,  9442,  9490,  9489
9117,  9442,  9443,  9491,  9490
9118,  9443,  9444,  9492,  9491
9119,  9444,  9445,  9493,  9492
9120,  9445,  9446,  9494,  9493
9121,  9446,  9447,  9495,  9494
9122,  9447,  9448,  9496,  9495
9123,  9448,  9449,  9497,  9496
9124,  9449,  9450,  9498,  9497
9125,  9450,  9451,  9499,  9498
9126,  9451,  9452,  9500,  9499
9127,  9452,  9453,  9501,  9500
9128,  9453,  9454,  9502,  9501
9129,  9454,  9455,  9503,  9502
9130,  9455,  9456,  9504,  9503
9131,  9456,  9457,  9505,  9504
9132,  9457,  9458,  9506,  9505
9133,  9458,  9459,  9507,  9506
9134,  9459,  9460,  9508,  9507
9135,  9460,  9461,  9509,  9508
9136,  9461,  9462,  9510,  9509
9137,  9462,  9463,  9511,  9510
9138,  9463,  9464,  9512,  9511
9139,  9464,  9465,  9513,  9512
9140,  9465,  9466,  9514,  9513
9141,  9466,  9467,  9515,  9514
9142,  9467,  9468,  9516,  9515
9143,  9468,  9469,  9517,  9516
9144,  9469,  9470,  9518,  9517
9145,  9470,  9471,  9519,  9518
9146,  9471,  9472,  9520,  9519
9147,  9472,  9473,  9521,  9520
9148,  9473,  9474,  9522,  9521
9149,  9474,  9475,  9523,  9522
9150,  9475,  9476,  9524,  9523
9151,  9476,  9477,  9525,  9524
9152,  9477,  9478,  9526,  9525
9153,  9478,  9479,  9527,  9526
9154,  9479,  9480,  9528,  9527
9155,  9480,  9481,  9529,  9528
9156,  9481,  9482,  9530,  9529
9157,  9482,  9483,  9531,  9530
9158,  9483,  9484,  9532,  9531
9159,  9484,  9485,  9533,  9532
9160,  9485,  9486,  9534,  9533
9161,  9486,  9487,  9535,  9534
9162,  9487,  9488,  9536,  9535
9163,  9488,   748,   749,  9536
9164,   780,  9489,  9537,   779
9165,  9489,  9490,  9538,  9537
9166,  9490,  9491,  9539,  9538
9167,  9491,  9492,  9540,  9539
9168,  9492,  9493,  9541,  9540
9169,  9493,  9494,  9542,  9541
9170,  9494,  9495,  9543,  9542
9171,  9495,  9496,  9544,  9543
9172,  9496,  9497,  9545,  9544
9173,  9497,  9498,  9546,  9545
9174,  9498,  9499,  9547,  9546
9175,  9499,  9500,  9548,  9547
9176,  9500,  9501,  9549,  9548
9177,  9501,  9502,  9550,  9549
9178,  9502,  9503,  9551,  9550
9179,  9503,  9504,  9552,  9551
9180,  9504,  9505,  9553,  9552
9181,  9505,  9506,  9554,  9553
9182,  9506,  9507,  9555,  9554
9183,  9507,  9508,  9556,  9555
9184,  9508,  9509,  9557,  9556
9185,  9509,  9510,  9558,  9557
9186,  9510,  9511,  9559,  9558
9187,  9511,  9512,  9560,  9559
9188,  9512,  9513,  9561,  9560
9189,  9513,  9514,  9562,  9561
9190,  9514,  9515,  9563,  9562
9191,  9515,  9516,  9564,  9563
9192,  9516,  9517,  9565,  9564
9193,  9517,  9518,  9566,  9565
9194,  9518,  9519,  9567,  9566
9195,  9519,  9520,  9568,  9567
9196,  9520,  9521,  9569,  9568
9197,  9521,  9522,  9570,  9569
9198,  9522,  9523,  9571,  9570
9199,  9523,  9524,  9572,  9571
9200,  9524,  9525,  9573,  9572
9201,  9525,  9526,  9574,  9573
9202,  9526,  9527,  9575,  9574
9203,  9527,  9528,  9576,  9575
9204,  9528,  9529,  9577,  9576
9205,  9529,  9530,  9578,  9577
9206,  9530,  9531,  9579,  9578
9207,  9531,  9532,  9580,  9579
9208,  9532,  9533,  9581,  9580
9209,  9533,  9534,  9582,  9581
9210,  9534,  9535,  9583,  9582
9211,  9535,  9536,  9584,  9583
9212,  9536,   749,   750,  9584
9213,   779,  9537,  9585,   778
9214,  9537,  9538,  9586,  9585
9215,  9538,  9539,  9587,  9586
9216,  9539,  9540,  9588,  9587
9217,  9540,  9541,  9589,  9588
9218,  9541,  9542,  9590,  9589
9219,  9542,  9543,  9591,  9590
9220,  9543,  9544,  9592,  9591
9221,  9544,  9545,  9593,  9592
9222,  9545,  9546,  9594,  9593
9223,  9546,  9547,  9595,  9594
9224,  9547,  9548,  9596,  9595
9225,  9548,  9549,  9597,  9596
9226,  9549,  9550,  9598,  9597
9227,  9550,  9551,  9599,  9598
9228,  9551,  9552,  9600,  9599
9229,  9552,  9553,  9601,  9600
9230,  9553,  9554,  9602,  9601
9231,  9554,  9555,  9603,  9602
9232,  9555,  9556,  9604,  9603
9233,  9556,  9557,  9605,  9604
9234,  9557,  9558,  9606,  9605
9235,  9558,  9559,  9607,  9606
9236,  9559,  9560,  9608,  9607
9237,  9560,  9561,  9609,  9608
9238,  9561,  9562,  9610,  9609
9239,  9562,  9563,  9611,  9610
9240,  9563,  9564,  9612,  9611
9241,  9564,  9565,  9613,  9612
9242,  9565,  9566,  9614,  9613
9243,  9566,  9567,  9615,  9614
9244,  9567,  9568,  9616,  9615
9245,  9568,  9569,  9617,  9616
9246,  9569,  9570,  9618,  9617
9247,  9570,  9571,  9619,  9618
9248,  9571,  9572,  9620,  9619
9249,  9572,  9573,  9621,  9620
9250,  9573,  9574,  9622,  9621
9251,  9574,  9575,  9623,  9622
9252,  9575,  9576,  9624,  9623
9253,  9576,  9577,  9625,  9624
9254,  9577,  9578,  9626,  9625
9255,  9578,  9579,  9627,  9626
9256,  9579,  9580,  9628,  9627
9257,  9580,  9581,  9629,  9628
9258,  9581,  9582,  9630,  9629
9259,  9582,  9583,  9631,  9630
9260,  9583,  9584,  9632,  9631
9261,  9584,   750,   751,  9632
9262,   778,  9585,  9633,   777
9263,  9585,  9586,  9634,  9633
9264,  9586,  9587,  9635,  9634
9265,  9587,  9588,  9636,  9635
9266,  9588,  9589,  9637,  9636
9267,  9589,  9590,  9638,  9637
9268,  9590,  9591,  9639,  9638
9269,  9591,  9592,  9640,  9639
9270,  9592,  9593,  9641,  9640
9271,  9593,  9594,  9642,  9641
9272,  9594,  9595,  9643,  9642
9273,  9595,  9596,  9644,  9643
9274,  9596,  9597,  9645,  9644
9275,  9597,  9598,  9646,  9645
9276,  9598,  9599,  9647,  9646
9277,  9599,  9600,  9648,  9647
9278,  9600,  9601,  9649,  9648
9279,  9601,  9602,  9650,  9649
9280,  9602,  9603,  9651,  9650
9281,  9603,  9604,  9652,  9651
9282,  9604,  9605,  9653,  9652
9283,  9605,  9606,  9654,  9653
9284,  9606,  9607,  9655,  9654
9285,  9607,  9608,  9656,  9655
9286,  9608,  9609,  9657,  9656
9287,  9609,  9610,  9658,  9657
9288,  9610,  9611,  9659,  9658
9289,  9611,  9612,  9660,  9659
9290,  9612,  9613,  9661,  9660
9291,  9613,  9614,  9662,  9661
9292,  9614,  9615,  9663,  9662
9293,  9615,  9616,  9664,  9663
9294,  9616,  9617,  9665,  9664
9295,  9617,  9618,  9666,  9665
9296,  9618,  9619,  9667,  9666
9297,  9619,  9620,  9668,  9667
9298,  9620,  9621,  9669,  9668
9299,  9621,  9622,  9670,  9669
9300,  9622,  9623,  9671,  9670
9301,  9623,  9624,  9672,  9671
9302,  9624,  9625,  9673,  9672
9303,  9625,  9626,  9674,  9673
9304,  9626,  9627,  9675,  9674
9305,  9627,  9628,  9676,  9675
9306,  9628,  9629,  9677,  9676
9307,  9629,  9630,  9678,  9677
9308,  9630,  9631,  9679,  9678
9309,  9631,  9632,  9680,  9679
9310,  9632,   751,   752,  9680
9311,   777,  9633,  9681,   776
9312,  9633,  9634,  9682,  9681
9313,  9634,  9635,  9683,  9682
9314,  9635,  9636,  9684,  9683
9315,  9636,  9637,  9685,  9684
9316,  9637,  9638,  9686,  9685
9317,  9638,  9639,  9687,  9686
9318,  9639,  9640,  9688,  9687
9319,  9640,  9641,  9689,  9688
9320,  9641,  9642,  9690,  9689
9321,  9642,  9643,  9691,  9690
9322,  9643,  9644,  9692,  9691
9323,  9644,  9645,  9693,  9692
9324,  9645,  9646,  9694,  9693
9325,  9646,  9647,  9695,  9694
9326,  9647,  9648,  9696,  9695
9327,  9648,  9649,  9697,  9696
9328,  9649,  9650,  9698,  9697
9329,  9650,  9651,  9699,  9698
9330,  9651,  9652,  9700,  9699
9331,  9652,  9653,  9701,  9700
9332,  9653,  9654,  9702,  9701
9333,  9654,  9655,  9703,  9702
9334,  9655,  9656,  9704,  9703
9335,  9656,  9657,  9705,  9704
9336,  9657,  9658,  9706,  9705
9337,  9658,  9659,  9707,  9706
9338,  9659,  9660,  9708,  9707
9339,  9660,  9661,  9709,  9708
9340,  9661,  9662,  9710,  9709
9341,  9662,  9663,  9711,  9710
9342,  9663,  9664,  9712,  9711
9343,  9664,  9665,  9713,  9712
9344,  9665,  9666,  9714,  9713
9345,  9666,  9667,  9715,  9714
9346,  9667,  9668,  9716,  9715
9347,  9668,  9669,  9717,  9716
9348,  9669,  9670,  9718,  9717
9349,  9670,  9671,  9719,  9718
9350,  9671,  9672,  9720,  9719
9351,  9672,  9673,  9721,  9720
9352,  9673,  9674,  9722,  9721
9353,  9674,  9675,  9723,  9722
9354,  9675,  9676,  9724,  9723
9355,  9676,  9677,  9725,  9724
9356,  9677,  9678,  9726,  9725
9357,  9678,  9679,  9727,  9726
9358,  9679,  9680,  9728,  9727
9359,  9680,   752,   753,  9728
9360,   776,  9681,  9729,   775
9361,  9681,  9682,  9730,  9729
9362,  9682,  9683,  9731,  9730
9363,  9683,  9684,  9732,  9731
9364,  9684,  9685,  9733,  9732
9365,  9685,  9686,  9734,  9733
9366,  9686,  9687,  9735,  9734
9367,  9687,  9688,  9736,  9735
9368,  9688,  9689,  9737,  9736
9369,  9689,  9690,  9738,  9737
9370,  9690,  9691,  9739,  9738
9371,  9691,  9692,  9740,  9739
9372,  9692,  9693,  9741,  9740
9373,  9693,  9694,  9742,  9741
9374,  9694,  9695,  9743,  9742
9375,  9695,  9696,  9744,  9743
9376,  9696,  9697,  9745,  9744
9377,  9697,  9698,  9746,  9745
9378,  9698,  9699,  9747,  9746
9379,  9699,  9700,  9748,  9747
9380,  9700,  9701,  9749,  9748
9381,  9701,  9702,  9750,  9749
9382,  9702,  9703,  9751,  9750
9383,  9703,  9704,  9752,  9751
9384,  9704,  9705,  9753,  9752
9385,  9705,  9706,  9754,  9753
9386,  9706,  9707,  9755,  9754
9387,  9707,  9708,  9756,  9755
9388,  9708,  9709,  9757,  9756
9389,  9709,  9710,  9758,  9757
9390,  9710,  9711,  9759,  9758
9391,  9711,  9712,  9760,  9759
9392,  9712,  9713,  9761,  9760
9393,  9713,  9714,  9762,  9761
9394,  9714,  9715,  9763,  9762
9395,  9715,  9716,  9764,  9763
9396,  9716,  9717,  9765,  9764
9397,  9717,  9718,  9766,  9765
9398,  9718,  9719,  9767,  9766
9399,  9719,  9720,  9768,  9767
9400,  9720,  9721,  9769,  9768
9401,  9721,  9722,  9770,  9769
9402,  9722,  9723,  9771,  9770
9403,  9723,  9724,  9772,  9771
9404,  9724,  9725,  9773,  9772
9405,  9725,  9726,  9774,  9773
9406,  9726,  9727,  9775,  9774
9407,  9727,  9728,  9776,  9775
9408,  9728,   753,   754,  9776
9409,   775,  9729,  9777,   774
9410,  9729,  9730,  9778,  9777
9411,  9730,  9731,  9779,  9778
9412,  9731,  9732,  9780,  9779
9413,  9732,  9733,  9781,  9780
9414,  9733,  9734,  9782,  9781
9415,  9734,  9735,  9783,  9782
9416,  9735,  9736,  9784,  9783
9417,  9736,  9737,  9785,  9784
9418,  9737,  9738,  9786,  9785
9419,  9738,  9739,  9787,  9786
9420,  9739,  9740,  9788,  9787
9421,  9740,  9741,  9789,  9788
9422,  9741,  9742,  9790,  9789
9423,  9742,  9743,  9791,  9790
9424,  9743,  9744,  9792,  9791
9425,  9744,  9745,  9793,  9792
9426,  9745,  9746,  9794,  9793
9427,  9746,  9747,  9795,  9794
9428,  9747,  9748,  9796,  9795
9429,  9748,  9749,  9797,  9796
9430,  9749,  9750,  9798,  9797
9431,  9750,  9751,  9799,  9798
9432,  9751,  9752,  9800,  9799
9433,  9752,  9753,  9801,  9800
9434,  9753,  9754,  9802,  9801
9435,  9754,  9755,  9803,  9802
9436,  9755,  9756,  9804,  9803
9437,  9756,  9757,  9805,  9804
9438,  9757,  9758,  9806,  9805
9439,  9758,  9759,  9807,  9806
9440,  9759,  9760,  9808,  9807
9441,  9760,  9761,  9809,  9808
9442,  9761,  9762,  9810,  9809
9443,  9762,  9763,  9811,  9810
9444,  9763,  9764,  9812,  9811
9445,  9764,  9765,  9813,  9812
9446,  9765,  9766,  9814,  9813
9447,  9766,  9767,  9815,  9814
9448,  9767,  9768,  9816,  9815
9449,  9768,  9769,  9817,  9816
9450,  9769,  9770,  9818,  9817
9451,  9770,  9771,  9819,  9818
9452,  9771,  9772,  9820,  9819
9453,  9772,  9773,  9821,  9820
9454,  9773,  9774,  9822,  9821
9455,  9774,  9775,  9823,  9822
9456,  9775,  9776,  9824,  9823
9457,  9776,   754,   755,  9824
9458,   774,  9777,  9825,   773
9459,  9777,  9778,  9826,  9825
9460,  9778,  9779,  9827,  9826
9461,  9779,  9780,  9828,  9827
9462,  9780,  9781,  9829,  9828
9463,  9781,  9782,  9830,  9829
9464,  9782,  9783,  9831,  9830
9465,  9783,  9784,  9832,  9831
9466,  9784,  9785,  9833,  9832
9467,  9785,  9786,  9834,  9833
9468,  9786,  9787,  9835,  9834
9469,  9787,  9788,  9836,  9835
9470,  9788,  9789,  9837,  9836
9471,  9789,  9790,  9838,  9837
9472,  9790,  9791,  9839,  9838
9473,  9791,  9792,  9840,  9839
9474,  9792,  9793,  9841,  9840
9475,  9793,  9794,  9842,  9841
9476,  9794,  9795,  9843,  9842
9477,  9795,  9796,  9844,  9843
9478,  9796,  9797,  9845,  9844
9479,  9797,  9798,  9846,  9845
9480,  9798,  9799,  9847,  9846
9481,  9799,  9800,  9848,  9847
9482,  9800,  9801,  9849,  9848
9483,  9801,  9802,  9850,  9849
9484,  9802,  9803,  9851,  9850
9485,  9803,  9804,  9852,  9851
9486,  9804,  9805,  9853,  9852
9487,  9805,  9806,  9854,  9853
9488,  9806,  9807,  9855,  9854
9489,  9807,  9808,  9856,  9855
9490,  9808,  9809,  9857,  9856
9491,  9809,  9810,  9858,  9857
9492,  9810,  9811,  9859,  9858
9493,  9811,  9812,  9860,  9859
9494,  9812,  9813,  9861,  9860
9495,  9813,  9814,  9862,  9861
9496,  9814,  9815,  9863,  9862
9497,  9815,  9816,  9864,  9863
9498,  9816,  9817,  9865,  9864
9499,  9817,  9818,  9866,  9865
9500,  9818,  9819,  9867,  9866
9501,  9819,  9820,  9868,  9867
9502,  9820,  9821,  9869,  9868
9503,  9821,  9822,  9870,  9869
9504,  9822,  9823,  9871,  9870
9505,  9823,  9824,  9872,  9871
9506,  9824,   755,   756,  9872
9507,   773,  9825,  9873,   772
9508,  9825,  9826,  9874,  9873
9509,  9826,  9827,  9875,  9874
9510,  9827,  9828,  9876,  9875
9511,  9828,  9829,  9877,  9876
9512,  9829,  9830,  9878,  9877
9513,  9830,  9831,  9879,  9878
9514,  9831,  9832,  9880,  9879
9515,  9832,  9833,  9881,  9880
9516,  9833,  9834,  9882,  9881
9517,  9834,  9835,  9883,  9882
9518,  9835,  9836,  9884,  9883
9519,  9836,  9837,  9885,  9884
9520,  9837,  9838,  9886,  9885
9521,  9838,  9839,  9887,  9886
9522,  9839,  9840,  9888,  9887
9523,  9840,  9841,  9889,  9888
9524,  9841,  9842,  9890,  9889
9525,  9842,  9843,  9891,  9890
9526,  9843,  9844,  9892,  9891
9527,  9844,  9845,  9893,  9892
9528,  9845,  9846,  9894,  9893
9529,  9846,  9847,  9895,  9894
9530,  9847,  9848,  9896,  9895
9531,  9848,  9849,  9897,  9896
9532,  9849,  9850,  9898,  9897
9533,  9850,  9851,  9899,  9898
9534,  9851,  9852,  9900,  9899
9535,  9852,  9853,  9901,  9900
9536,  9853,  9854,  9902,  9901
9537,  9854,  9855,  9903,  9902
9538,  9855,  9856,  9904,  9903
9539,  9856,  9857,  9905,  9904
9540,  9857,  9858,  9906,  9905
9541,  9858,  9859,  9907,  9906
9542,  9859,  9860,  9908,  9907
9543,  9860,  9861,  9909,  9908
9544,  9861,  9862,  9910,  9909
9545,  9862,  9863,  9911,  9910
9546,  9863,  9864,  9912,  9911
9547,  9864,  9865,  9913,  9912
9548,  9865,  9866,  9914,  9913
9549,  9866,  9867,  9915,  9914
9550,  9867,  9868,  9916,  9915
9551,  9868,  9869,  9917,  9916
9552,  9869,  9870,  9918,  9917
9553,  9870,  9871,  9919,  9918
9554,  9871,  9872,  9920,  9919
9555,  9872,   756,   757,  9920
9556,   772,  9873,  9921,   771
9557,  9873,  9874,  9922,  9921
9558,  9874,  9875,  9923,  9922
9559,  9875,  9876,  9924,  9923
9560,  9876,  9877,  9925,  9924
9561,  9877,  9878,  9926,  9925
9562,  9878,  9879,  9927,  9926
9563,  9879,  9880,  9928,  9927
9564,  9880,  9881,  9929,  9928
9565,  9881,  9882,  9930,  9929
9566,  9882,  9883,  9931,  9930
9567,  9883,  9884,  9932,  9931
9568,  9884,  9885,  9933,  9932
9569,  9885,  9886,  9934,  9933
9570,  9886,  9887,  9935,  9934
9571,  9887,  9888,  9936,  9935
9572,  9888,  9889,  9937,  9936
9573,  9889,  9890,  9938,  9937
9574,  9890,  9891,  9939,  9938
9575,  9891,  9892,  9940,  9939
9576,  9892,  9893,  9941,  9940
9577,  9893,  9894,  9942,  9941
9578,  9894,  9895,  9943,  9942
9579,  9895,  9896,  9944,  9943
9580,  9896,  9897,  9945,  9944
9581,  9897,  9898,  9946,  9945
9582,  9898,  9899,  9947,  9946
9583,  9899,  9900,  9948,  9947
9584,  9900,  9901,  9949,  9948
9585,  9901,  9902,  9950,  9949
9586,  9902,  9903,  9951,  9950
9587,  9903,  9904,  9952,  9951
9588,  9904,  9905,  9953,  9952
9589,  9905,  9906,  9954,  9953
9590,  9906,  9907,  9955,  9954
9591,  9907,  9908,  9956,  9955
9592,  9908,  9909,  9957,  9956
9593,  9909,  9910,  9958,  9957
9594,  9910,  9911,  9959,  9958
9595,  9911,  9912,  9960,  9959
9596,  9912,  9913,  9961,  9960
9597,  9913,  9914,  9962,  9961
9598,  9914,  9915,  9963,  9962
9599,  9915,  9916,  9964,  9963
9600,  9916,  9917,  9965,  9964
9601,  9917,  9918,  9966,  9965
9602,  9918,  9919,  9967,  9966
9603,  9919,  9920,  9968,  9967
9604,  9920,   757,   758,  9968
9605,   771,  9921,  9969,   770
9606,  9921,  9922,  9970,  9969
9607,  9922,  9923,  9971,  9970
9608,  9923,  9924,  9972,  9971
9609,  9924,  9925,  9973,  9972
9610,  9925,  9926,  9974,  9973
9611,  9926,  9927,  9975,  9974
9612,  9927,  9928,  9976,  9975
9613,  9928,  9929,  9977,  9976
9614,  9929,  9930,  9978,  9977
9615,  9930,  9931,  9979,  9978
9616,  9931,  9932,  9980,  9979
9617,  9932,  9933,  9981,  9980
9618,  9933,  9934,  9982,  9981
9619,  9934,  9935,  9983,  9982
9620,  9935,  9936,  9984,  9983
9621,  9936,  9937,  9985,  9984
9622,  9937,  9938,  9986,  9985
9623,  9938,  9939,  9987,  9986
9624,  9939,  9940,  9988,  9987
9625,  9940,  9941,  9989,  9988
9626,  9941,  9942,  9990,  9989
9627,  9942,  9943,  9991,  9990
9628,  9943,  9944,  9992,  9991
9629,  9944,  9945,  9993,  9992
9630,  9945,  9946,  9994,  9993
9631,  9946,  9947,  9995,  9994
9632,  9947,  9948,  9996,  9995
9633,  9948,  9949,  9997,  9996
9634,  9949,  9950,  9998,  9997
9635,  9950,  9951,  9999,  9998
9636,  9951,  9952, 10000,  9999
9637,  9952,  9953, 10001, 10000
9638,  9953,  9954, 10002, 10001
9639,  9954,  9955, 10003, 10002
9640,  9955,  9956, 10004, 10003
9641,  9956,  9957, 10005, 10004
9642,  9957,  9958, 10006, 10005
9643,  9958,  9959, 10007, 10006
9644,  9959,  9960, 10008, 10007
9645,  9960,  9961, 10009, 10008
9646,  9961,  9962, 10010, 10009
9647,  9962,  9963, 10011, 10010
9648,  9963,  9964, 10012, 10011
9649,  9964,  9965, 10013, 10012
9650,  9965,  9966, 10014, 10013
9651,  9966,  9967, 10015, 10014
9652,  9967,  9968, 10016, 10015
9653,  9968,   758,   759, 10016
9654,   770,  9969, 10017,   769
9655,  9969,  9970, 10018, 10017
9656,  9970,  9971, 10019, 10018
9657,  9971,  9972, 10020, 10019
9658,  9972,  9973, 10021, 10020
9659,  9973,  9974, 10022, 10021
9660,  9974,  9975, 10023, 10022
9661,  9975,  9976, 10024, 10023
9662,  9976,  9977, 10025, 10024
9663,  9977,  9978, 10026, 10025
9664,  9978,  9979, 10027, 10026
9665,  9979,  9980, 10028, 10027
9666,  9980,  9981, 10029, 10028
9667,  9981,  9982, 10030, 10029
9668,  9982,  9983, 10031, 10030
9669,  9983,  9984, 10032, 10031
9670,  9984,  9985, 10033, 10032
9671,  9985,  9986, 10034, 10033
9672,  9986,  9987, 10035, 10034
9673,  9987,  9988, 10036, 10035
9674,  9988,  9989, 10037, 10036
9675,  9989,  9990, 10038, 10037
9676,  9990,  9991, 10039, 10038
9677,  9991,  9992, 10040, 10039
9678,  9992,  9993, 10041, 10040
9679,  9993,  9994, 10042, 10041
9680,  9994,  9995, 10043, 10042
9681,  9995,  9996, 10044, 10043
9682,  9996,  9997, 10045, 10044
9683,  9997,  9998, 10046, 10045
9684,  9998,  9999, 10047, 10046
9685,  9999, 10000, 10048, 10047
9686, 10000, 10001, 10049, 10048
9687, 10001, 10002, 10050, 10049
9688, 10002, 10003, 10051, 10050
9689, 10003, 10004, 10052, 10051
9690, 10004, 10005, 10053, 10052
9691, 10005, 10006, 10054, 10053
9692, 10006, 10007, 10055, 10054
9693, 10007, 10008, 10056, 10055
9694, 10008, 10009, 10057, 10056
9695, 10009, 10010, 10058, 10057
9696, 10010, 10011, 10059, 10058
9697, 10011, 10012, 10060, 10059
9698, 10012, 10013, 10061, 10060
9699, 10013, 10014, 10062, 10061
9700, 10014, 10015, 10063, 10062
9701, 10015, 10016, 10064, 10063
9702, 10016,   759,   760, 10064
9703,   769, 10017, 10065,   768
9704, 10017, 10018, 10066, 10065
9705, 10018, 10019, 10067, 10066
9706, 10019, 10020, 10068, 10067
9707, 10020, 10021, 10069, 10068
9708, 10021, 10022, 10070, 10069
9709, 10022, 10023, 10071, 10070
9710, 10023, 10024, 10072, 10071
9711, 10024, 10025, 10073, 10072
9712, 10025, 10026, 10074, 10073
9713, 10026, 10027, 10075, 10074
9714, 10027, 10028, 10076, 10075
9715, 10028, 10029, 10077, 10076
9716, 10029, 10030, 10078, 10077
9717, 10030, 10031, 10079, 10078
9718, 10031, 10032, 10080, 10079
9719, 10032, 10033, 10081, 10080
9720, 10033, 10034, 10082, 10081
9721, 10034, 10035, 10083, 10082
9722, 10035, 10036, 10084, 10083
9723, 10036, 10037, 10085, 10084
9724, 10037, 10038, 10086, 10085
9725, 10038, 10039, 10087, 10086
9726, 10039, 10040, 10088, 10087
9727, 10040, 10041, 10089, 10088
9728, 10041, 10042, 10090, 10089
9729, 10042, 10043, 10091, 10090
9730, 10043, 10044, 10092, 10091
9731, 10044, 10045, 10093, 10092
9732, 10045, 10046, 10094, 10093
9733, 10046, 10047, 10095, 10094
9734, 10047, 10048, 10096, 10095
9735, 10048, 10049, 10097, 10096
9736, 10049, 10050, 10098, 10097
9737, 10050, 10051, 10099, 10098
9738, 10051, 10052, 10100, 10099
9739, 10052, 10053, 10101, 10100
9740, 10053, 10054, 10102, 10101
9741, 10054, 10055, 10103, 10102
9742, 10055, 10056, 10104, 10103
9743, 10056, 10057, 10105, 10104
9744, 10057, 10058, 10106, 10105
9745, 10058, 10059, 10107, 10106
9746, 10059, 10060, 10108, 10107
9747, 10060, 10061, 10109, 10108
9748, 10061, 10062, 10110, 10109
9749, 10062, 10063, 10111, 10110
9750, 10063, 10064, 10112, 10111
9751, 10064,   760,   761, 10112
9752,   768, 10065, 10113,   767
9753, 10065, 10066, 10114, 10113
9754, 10066, 10067, 10115, 10114
9755, 10067, 10068, 10116, 10115
9756, 10068, 10069, 10117, 10116
9757, 10069, 10070, 10118, 10117
9758, 10070, 10071, 10119, 10118
9759, 10071, 10072, 10120, 10119
9760, 10072, 10073, 10121, 10120
9761, 10073, 10074, 10122, 10121
9762, 10074, 10075, 10123, 10122
9763, 10075, 10076, 10124, 10123
9764, 10076, 10077, 10125, 10124
9765, 10077, 10078, 10126, 10125
9766, 10078, 10079, 10127, 10126
9767, 10079, 10080, 10128, 10127
9768, 10080, 10081, 10129, 10128
9769, 10081, 10082, 10130, 10129
9770, 10082, 10083, 10131, 10130
9771, 10083, 10084, 10132, 10131
9772, 10084, 10085, 10133, 10132
9773, 10085, 10086, 10134, 10133
9774, 10086, 10087, 10135, 10134
9775, 10087, 10088, 10136, 10135
9776, 10088, 10089, 10137, 10136
9777, 10089, 10090, 10138, 10137
9778, 10090, 10091, 10139, 10138
9779, 10091, 10092, 10140, 10139
9780, 10092, 10093, 10141, 10140
9781, 10093, 10094, 10142, 10141
9782, 10094, 10095, 10143, 10142
9783, 10095, 10096, 10144, 10143
9784, 10096, 10097, 10145, 10144
9785, 10097, 10098, 10146, 10145
9786, 10098, 10099, 10147, 10146
9787, 10099, 10100, 10148, 10147
9788, 10100, 10101, 10149, 10148
9789, 10101, 10102, 10150, 10149
9790, 10102, 10103, 10151, 10150
9791, 10103, 10104, 10152, 10151
9792, 10104, 10105, 10153, 10152
9793, 10105, 10106, 10154, 10153
9794, 10106, 10107, 10155, 10154
9795, 10107, 10108, 10156, 10155
9796, 10108, 10109, 10157, 10156
9797, 10109, 10110, 10158, 10157
9798, 10110, 10111, 10159, 10158
9799, 10111, 10112, 10160, 10159
9800, 10112,   761,   762, 10160
9801,   767, 10113, 10161,   766
9802, 10113, 10114, 10162, 10161
9803, 10114, 10115, 10163, 10162
9804, 10115, 10116, 10164, 10163
9805, 10116, 10117, 10165, 10164
9806, 10117, 10118, 10166, 10165
9807, 10118, 10119, 10167, 10166
9808, 10119, 10120, 10168, 10167
9809, 10120, 10121, 10169, 10168
9810, 10121, 10122, 10170, 10169
9811, 10122, 10123, 10171, 10170
9812, 10123, 10124, 10172, 10171
9813, 10124, 10125, 10173, 10172
9814, 10125, 10126, 10174, 10173
9815, 10126, 10127, 10175, 10174
9816, 10127, 10128, 10176, 10175
9817, 10128, 10129, 10177, 10176
9818, 10129, 10130, 10178, 10177
9819, 10130, 10131, 10179, 10178
9820, 10131, 10132, 10180, 10179
9821, 10132, 10133, 10181, 10180
9822, 10133, 10134, 10182, 10181
9823, 10134, 10135, 10183, 10182
9824, 10135, 10136, 10184, 10183
9825, 10136, 10137, 10185, 10184
9826, 10137, 10138, 10186, 10185
9827, 10138, 10139, 10187, 10186
9828, 10139, 10140, 10188, 10187
9829, 10140, 10141, 10189, 10188
9830, 10141, 10142, 10190, 10189
9831, 10142, 10143, 10191, 10190
9832, 10143, 10144, 10192, 10191
9833, 10144, 10145, 10193, 10192
9834, 10145, 10146, 10194, 10193
9835, 10146, 10147, 10195, 10194
9836, 10147, 10148, 10196, 10195
9837, 10148, 10149, 10197, 10196
9838, 10149, 10150, 10198, 10197
9839, 10150, 10151, 10199, 10198
9840, 10151, 10152, 10200, 10199
9841, 10152, 10153, 10201, 10200
9842, 10153, 10154, 10202, 10201
9843, 10154, 10155, 10203, 10202
9844, 10155, 10156, 10204, 10203
9845, 10156, 10157, 10205, 10204
9846, 10157, 10158, 10206, 10205
9847, 10158, 10159, 10207, 10206
9848, 10159, 10160, 10208, 10207
9849, 10160,   762,   763, 10208
9850,   766, 10161, 10209,   765
9851, 10161, 10162, 10210, 10209
9852, 10162, 10163, 10211, 10210
9853, 10163, 10164, 10212, 10211
9854, 10164, 10165, 10213, 10212
9855, 10165, 10166, 10214, 10213
9856, 10166, 10167, 10215, 10214
9857, 10167, 10168, 10216, 10215
9858, 10168, 10169, 10217, 10216
9859, 10169, 10170, 10218, 10217
9860, 10170, 10171, 10219, 10218
9861, 10171, 10172, 10220, 10219
9862, 10172, 10173, 10221, 10220
9863, 10173, 10174, 10222, 10221
9864, 10174, 10175, 10223, 10222
9865, 10175, 10176, 10224, 10223
9866, 10176, 10177, 10225, 10224
9867, 10177, 10178, 10226, 10225
9868, 10178, 10179, 10227, 10226
9869, 10179, 10180, 10228, 10227
9870, 10180, 10181, 10229, 10228
9871, 10181, 10182, 10230, 10229
9872, 10182, 10183, 10231, 10230
9873, 10183, 10184, 10232, 10231
9874, 10184, 10185, 10233, 10232
9875, 10185, 10186, 10234, 10233
9876, 10186, 10187, 10235, 10234
9877, 10187, 10188, 10236, 10235
9878, 10188, 10189, 10237, 10236
9879, 10189, 10190, 10238, 10237
9880, 10190, 10191, 10239, 10238
9881, 10191, 10192, 10240, 10239
9882, 10192, 10193, 10241, 10240
9883, 10193, 10194, 10242, 10241
9884, 10194, 10195, 10243, 10242
9885, 10195, 10196, 10244, 10243
9886, 10196, 10197, 10245, 10244
9887, 10197, 10198, 10246, 10245
9888, 10198, 10199, 10247, 10246
9889, 10199, 10200, 10248, 10247
9890, 10200, 10201, 10249, 10248
9891, 10201, 10202, 10250, 10249
9892, 10202, 10203, 10251, 10250
9893, 10203, 10204, 10252, 10251
9894, 10204, 10205, 10253, 10252
9895, 10205, 10206, 10254, 10253
9896, 10206, 10207, 10255, 10254
9897, 10207, 10208, 10256, 10255
9898, 10208,   763,   764, 10256
9899,   765, 10209,   509,    11
9900, 10209, 10210,   510,   509
9901, 10210, 10211,   511,   510
9902, 10211, 10212,   512,   511
9903, 10212, 10213,   513,   512
9904, 10213, 10214,   514,   513
9905, 10214, 10215,   515,   514
9906, 10215, 10216,   516,   515
9907, 10216, 10217,   517,   516
9908, 10217, 10218,   518,   517
9909, 10218, 10219,   519,   518
9910, 10219, 10220,   520,   519
9911, 10220, 10221,   521,   520
9912, 10221, 10222,   522,   521
9913, 10222, 10223,   523,   522
9914, 10223, 10224,   524,   523
9915, 10224, 10225,   525,   524
9916, 10225, 10226,   526,   525
9917, 10226, 10227,   527,   526
9918, 10227, 10228,   528,   527
9919, 10228, 10229,   529,   528
9920, 10229, 10230,   530,   529
9921, 10230, 10231,   531,   530
9922, 10231, 10232,   532,   531
9923, 10232, 10233,   533,   532
9924, 10233, 10234,   534,   533
9925, 10234, 10235,   535,   534
9926, 10235, 10236,   536,   535
9927, 10236, 10237,   537,   536
9928, 10237, 10238,   538,   537
9929, 10238, 10239,   539,   538
9930, 10239, 10240,   540,   539
9931, 10240, 10241,   541,   540
9932, 10241, 10242,   542,   541
9933, 10242, 10243,   543,   542
9934, 10243, 10244,   544,   543
9935, 10244, 10245,   545,   544
9936, 10245, 10246,   546,   545
9937, 10246, 10247,   547,   546
9938, 10247, 10248,   548,   547
9939, 10248, 10249,   549,   548
9940, 10249, 10250,   550,   549
9941, 10250, 10251,   551,   550
9942, 10251, 10252,   552,   551
9943, 10252, 10253,   553,   552
9944, 10253, 10254,   554,   553
9945, 10254, 10255,   555,   554
9946, 10255, 10256,   556,   555
9947, 10256,   764,    12,   556
 9948,    16,   736, 10257,   848
 9949,   736,   735, 10258, 10257
 9950,   735,   734, 10259, 10258
 9951,   734,   733, 10260, 10259
 9952,   733,   732, 10261, 10260
 9953,   732,   731, 10262, 10261
 9954,   731,   730, 10263, 10262
 9955,   730,   729, 10264, 10263
 9956,   729,   728, 10265, 10264
 9957,   728,   727, 10266, 10265
 9958,   727,   726, 10267, 10266
 9959,   726,   725, 10268, 10267
 9960,   725,   724, 10269, 10268
 9961,   724,   723, 10270, 10269
 9962,   723,   722, 10271, 10270
 9963,   722,   721, 10272, 10271
 9964,   721,   720, 10273, 10272
 9965,   720,   719, 10274, 10273
 9966,   719,   718, 10275, 10274
 9967,   718,   717, 10276, 10275
 9968,   717,   716, 10277, 10276
 9969,   716,   715, 10278, 10277
 9970,   715,   714, 10279, 10278
 9971,   714,   713, 10280, 10279
 9972,   713,   712, 10281, 10280
 9973,   712,   711, 10282, 10281
 9974,   711,   710, 10283, 10282
 9975,   710,   709, 10284, 10283
 9976,   709,   708, 10285, 10284
 9977,   708,   707, 10286, 10285
 9978,   707,   706, 10287, 10286
 9979,   706,   705, 10288, 10287
 9980,   705,   704, 10289, 10288
 9981,   704,   703, 10290, 10289
 9982,   703,   702, 10291, 10290
 9983,   702,   701, 10292, 10291
 9984,   701,   700, 10293, 10292
 9985,   700,   699, 10294, 10293
 9986,   699,   698, 10295, 10294
 9987,   698,   697, 10296, 10295
 9988,   697,   696, 10297, 10296
 9989,   696,   695, 10298, 10297
 9990,   695,   694, 10299, 10298
 9991,   694,   693, 10300, 10299
 9992,   693,   692, 10301, 10300
 9993,   692,   691, 10302, 10301
 9994,   691,   690, 10303, 10302
 9995,   690,   689, 10304, 10303
 9996,   689,    15,   793, 10304
 9997,   848, 10257, 10305,   847
 9998, 10257, 10258, 10306, 10305
 9999, 10258, 10259, 10307, 10306
10000, 10259, 10260, 10308, 10307
10001, 10260, 10261, 10309, 10308
10002, 10261, 10262, 10310, 10309
10003, 10262, 10263, 10311, 10310
10004, 10263, 10264, 10312, 10311
10005, 10264, 10265, 10313, 10312
10006, 10265, 10266, 10314, 10313
10007, 10266, 10267, 10315, 10314
10008, 10267, 10268, 10316, 10315
10009, 10268, 10269, 10317, 10316
10010, 10269, 10270, 10318, 10317
10011, 10270, 10271, 10319, 10318
10012, 10271, 10272, 10320, 10319
10013, 10272, 10273, 10321, 10320
10014, 10273, 10274, 10322, 10321
10015, 10274, 10275, 10323, 10322
10016, 10275, 10276, 10324, 10323
10017, 10276, 10277, 10325, 10324
10018, 10277, 10278, 10326, 10325
10019, 10278, 10279, 10327, 10326
10020, 10279, 10280, 10328, 10327
10021, 10280, 10281, 10329, 10328
10022, 10281, 10282, 10330, 10329
10023, 10282, 10283, 10331, 10330
10024, 10283, 10284, 10332, 10331
10025, 10284, 10285, 10333, 10332
10026, 10285, 10286, 10334, 10333
10027, 10286, 10287, 10335, 10334
10028, 10287, 10288, 10336, 10335
10029, 10288, 10289, 10337, 10336
10030, 10289, 10290, 10338, 10337
10031, 10290, 10291, 10339, 10338
10032, 10291, 10292, 10340, 10339
10033, 10292, 10293, 10341, 10340
10034, 10293, 10294, 10342, 10341
10035, 10294, 10295, 10343, 10342
10036, 10295, 10296, 10344, 10343
10037, 10296, 10297, 10345, 10344
10038, 10297, 10298, 10346, 10345
10039, 10298, 10299, 10347, 10346
10040, 10299, 10300, 10348, 10347
10041, 10300, 10301, 10349, 10348
10042, 10301, 10302, 10350, 10349
10043, 10302, 10303, 10351, 10350
10044, 10303, 10304, 10352, 10351
10045, 10304,   793,   794, 10352
10046,   847, 10305, 10353,   846
10047, 10305, 10306, 10354, 10353
10048, 10306, 10307, 10355, 10354
10049, 10307, 10308, 10356, 10355
10050, 10308, 10309, 10357, 10356
10051, 10309, 10310, 10358, 10357
10052, 10310, 10311, 10359, 10358
10053, 10311, 10312, 10360, 10359
10054, 10312, 10313, 10361, 10360
10055, 10313, 10314, 10362, 10361
10056, 10314, 10315, 10363, 10362
10057, 10315, 10316, 10364, 10363
10058, 10316, 10317, 10365, 10364
10059, 10317, 10318, 10366, 10365
10060, 10318, 10319, 10367, 10366
10061, 10319, 10320, 10368, 10367
10062, 10320, 10321, 10369, 10368
10063, 10321, 10322, 10370, 10369
10064, 10322, 10323, 10371, 10370
10065, 10323, 10324, 10372, 10371
10066, 10324, 10325, 10373, 10372
10067, 10325, 10326, 10374, 10373
10068, 10326, 10327, 10375, 10374
10069, 10327, 10328, 10376, 10375
10070, 10328, 10329, 10377, 10376
10071, 10329, 10330, 10378, 10377
10072, 10330, 10331, 10379, 10378
10073, 10331, 10332, 10380, 10379
10074, 10332, 10333, 10381, 10380
10075, 10333, 10334, 10382, 10381
10076, 10334, 10335, 10383, 10382
10077, 10335, 10336, 10384, 10383
10078, 10336, 10337, 10385, 10384
10079, 10337, 10338, 10386, 10385
10080, 10338, 10339, 10387, 10386
10081, 10339, 10340, 10388, 10387
10082, 10340, 10341, 10389, 10388
10083, 10341, 10342, 10390, 10389
10084, 10342, 10343, 10391, 10390
10085, 10343, 10344, 10392, 10391
10086, 10344, 10345, 10393, 10392
10087, 10345, 10346, 10394, 10393
10088, 10346, 10347, 10395, 10394
10089, 10347, 10348, 10396, 10395
10090, 10348, 10349, 10397, 10396
10091, 10349, 10350, 10398, 10397
10092, 10350, 10351, 10399, 10398
10093, 10351, 10352, 10400, 10399
10094, 10352,   794,   795, 10400
10095,   846, 10353, 10401,   845
10096, 10353, 10354, 10402, 10401
10097, 10354, 10355, 10403, 10402
10098, 10355, 10356, 10404, 10403
10099, 10356, 10357, 10405, 10404
10100, 10357, 10358, 10406, 10405
10101, 10358, 10359, 10407, 10406
10102, 10359, 10360, 10408, 10407
10103, 10360, 10361, 10409, 10408
10104, 10361, 10362, 10410, 10409
10105, 10362, 10363, 10411, 10410
10106, 10363, 10364, 10412, 10411
10107, 10364, 10365, 10413, 10412
10108, 10365, 10366, 10414, 10413
10109, 10366, 10367, 10415, 10414
10110, 10367, 10368, 10416, 10415
10111, 10368, 10369, 10417, 10416
10112, 10369, 10370, 10418, 10417
10113, 10370, 10371, 10419, 10418
10114, 10371, 10372, 10420, 10419
10115, 10372, 10373, 10421, 10420
10116, 10373, 10374, 10422, 10421
10117, 10374, 10375, 10423, 10422
10118, 10375, 10376, 10424, 10423
10119, 10376, 10377, 10425, 10424
10120, 10377, 10378, 10426, 10425
10121, 10378, 10379, 10427, 10426
10122, 10379, 10380, 10428, 10427
10123, 10380, 10381, 10429, 10428
10124, 10381, 10382, 10430, 10429
10125, 10382, 10383, 10431, 10430
10126, 10383, 10384, 10432, 10431
10127, 10384, 10385, 10433, 10432
10128, 10385, 10386, 10434, 10433
10129, 10386, 10387, 10435, 10434
10130, 10387, 10388, 10436, 10435
10131, 10388, 10389, 10437, 10436
10132, 10389, 10390, 10438, 10437
10133, 10390, 10391, 10439, 10438
10134, 10391, 10392, 10440, 10439
10135, 10392, 10393, 10441, 10440
10136, 10393, 10394, 10442, 10441
10137, 10394, 10395, 10443, 10442
10138, 10395, 10396, 10444, 10443
10139, 10396, 10397, 10445, 10444
10140, 10397, 10398, 10446, 10445
10141, 10398, 10399, 10447, 10446
10142, 10399, 10400, 10448, 10447
10143, 10400,   795,   796, 10448
10144,   845, 10401, 10449,   844
10145, 10401, 10402, 10450, 10449
10146, 10402, 10403, 10451, 10450
10147, 10403, 10404, 10452, 10451
10148, 10404, 10405, 10453, 10452
10149, 10405, 10406, 10454, 10453
10150, 10406, 10407, 10455, 10454
10151, 10407, 10408, 10456, 10455
10152, 10408, 10409, 10457, 10456
10153, 10409, 10410, 10458, 10457
10154, 10410, 10411, 10459, 10458
10155, 10411, 10412, 10460, 10459
10156, 10412, 10413, 10461, 10460
10157, 10413, 10414, 10462, 10461
10158, 10414, 10415, 10463, 10462
10159, 10415, 10416, 10464, 10463
10160, 10416, 10417, 10465, 10464
10161, 10417, 10418, 10466, 10465
10162, 10418, 10419, 10467, 10466
10163, 10419, 10420, 10468, 10467
10164, 10420, 10421, 10469, 10468
10165, 10421, 10422, 10470, 10469
10166, 10422, 10423, 10471, 10470
10167, 10423, 10424, 10472, 10471
10168, 10424, 10425, 10473, 10472
10169, 10425, 10426, 10474, 10473
10170, 10426, 10427, 10475, 10474
10171, 10427, 10428, 10476, 10475
10172, 10428, 10429, 10477, 10476
10173, 10429, 10430, 10478, 10477
10174, 10430, 10431, 10479, 10478
10175, 10431, 10432, 10480, 10479
10176, 10432, 10433, 10481, 10480
10177, 10433, 10434, 10482, 10481
10178, 10434, 10435, 10483, 10482
10179, 10435, 10436, 10484, 10483
10180, 10436, 10437, 10485, 10484
10181, 10437, 10438, 10486, 10485
10182, 10438, 10439, 10487, 10486
10183, 10439, 10440, 10488, 10487
10184, 10440, 10441, 10489, 10488
10185, 10441, 10442, 10490, 10489
10186, 10442, 10443, 10491, 10490
10187, 10443, 10444, 10492, 10491
10188, 10444, 10445, 10493, 10492
10189, 10445, 10446, 10494, 10493
10190, 10446, 10447, 10495, 10494
10191, 10447, 10448, 10496, 10495
10192, 10448,   796,   797, 10496
10193,   844, 10449, 10497,   843
10194, 10449, 10450, 10498, 10497
10195, 10450, 10451, 10499, 10498
10196, 10451, 10452, 10500, 10499
10197, 10452, 10453, 10501, 10500
10198, 10453, 10454, 10502, 10501
10199, 10454, 10455, 10503, 10502
10200, 10455, 10456, 10504, 10503
10201, 10456, 10457, 10505, 10504
10202, 10457, 10458, 10506, 10505
10203, 10458, 10459, 10507, 10506
10204, 10459, 10460, 10508, 10507
10205, 10460, 10461, 10509, 10508
10206, 10461, 10462, 10510, 10509
10207, 10462, 10463, 10511, 10510
10208, 10463, 10464, 10512, 10511
10209, 10464, 10465, 10513, 10512
10210, 10465, 10466, 10514, 10513
10211, 10466, 10467, 10515, 10514
10212, 10467, 10468, 10516, 10515
10213, 10468, 10469, 10517, 10516
10214, 10469, 10470, 10518, 10517
10215, 10470, 10471, 10519, 10518
10216, 10471, 10472, 10520, 10519
10217, 10472, 10473, 10521, 10520
10218, 10473, 10474, 10522, 10521
10219, 10474, 10475, 10523, 10522
10220, 10475, 10476, 10524, 10523
10221, 10476, 10477, 10525, 10524
10222, 10477, 10478, 10526, 10525
10223, 10478, 10479, 10527, 10526
10224, 10479, 10480, 10528, 10527
10225, 10480, 10481, 10529, 10528
10226, 10481, 10482, 10530, 10529
10227, 10482, 10483, 10531, 10530
10228, 10483, 10484, 10532, 10531
10229, 10484, 10485, 10533, 10532
10230, 10485, 10486, 10534, 10533
10231, 10486, 10487, 10535, 10534
10232, 10487, 10488, 10536, 10535
10233, 10488, 10489, 10537, 10536
10234, 10489, 10490, 10538, 10537
10235, 10490, 10491, 10539, 10538
10236, 10491, 10492, 10540, 10539
10237, 10492, 10493, 10541, 10540
10238, 10493, 10494, 10542, 10541
10239, 10494, 10495, 10543, 10542
10240, 10495, 10496, 10544, 10543
10241, 10496,   797,   798, 10544
10242,   843, 10497, 10545,   842
10243, 10497, 10498, 10546, 10545
10244, 10498, 10499, 10547, 10546
10245, 10499, 10500, 10548, 10547
10246, 10500, 10501, 10549, 10548
10247, 10501, 10502, 10550, 10549
10248, 10502, 10503, 10551, 10550
10249, 10503, 10504, 10552, 10551
10250, 10504, 10505, 10553, 10552
10251, 10505, 10506, 10554, 10553
10252, 10506, 10507, 10555, 10554
10253, 10507, 10508, 10556, 10555
10254, 10508, 10509, 10557, 10556
10255, 10509, 10510, 10558, 10557
10256, 10510, 10511, 10559, 10558
10257, 10511, 10512, 10560, 10559
10258, 10512, 10513, 10561, 10560
10259, 10513, 10514, 10562, 10561
10260, 10514, 10515, 10563, 10562
10261, 10515, 10516, 10564, 10563
10262, 10516, 10517, 10565, 10564
10263, 10517, 10518, 10566, 10565
10264, 10518, 10519, 10567, 10566
10265, 10519, 10520, 10568, 10567
10266, 10520, 10521, 10569, 10568
10267, 10521, 10522, 10570, 10569
10268, 10522, 10523, 10571, 10570
10269, 10523, 10524, 10572, 10571
10270, 10524, 10525, 10573, 10572
10271, 10525, 10526, 10574, 10573
10272, 10526, 10527, 10575, 10574
10273, 10527, 10528, 10576, 10575
10274, 10528, 10529, 10577, 10576
10275, 10529, 10530, 10578, 10577
10276, 10530, 10531, 10579, 10578
10277, 10531, 10532, 10580, 10579
10278, 10532, 10533, 10581, 10580
10279, 10533, 10534, 10582, 10581
10280, 10534, 10535, 10583, 10582
10281, 10535, 10536, 10584, 10583
10282, 10536, 10537, 10585, 10584
10283, 10537, 10538, 10586, 10585
10284, 10538, 10539, 10587, 10586
10285, 10539, 10540, 10588, 10587
10286, 10540, 10541, 10589, 10588
10287, 10541, 10542, 10590, 10589
10288, 10542, 10543, 10591, 10590
10289, 10543, 10544, 10592, 10591
10290, 10544,   798,   799, 10592
10291,   842, 10545, 10593,   841
10292, 10545, 10546, 10594, 10593
10293, 10546, 10547, 10595, 10594
10294, 10547, 10548, 10596, 10595
10295, 10548, 10549, 10597, 10596
10296, 10549, 10550, 10598, 10597
10297, 10550, 10551, 10599, 10598
10298, 10551, 10552, 10600, 10599
10299, 10552, 10553, 10601, 10600
10300, 10553, 10554, 10602, 10601
10301, 10554, 10555, 10603, 10602
10302, 10555, 10556, 10604, 10603
10303, 10556, 10557, 10605, 10604
10304, 10557, 10558, 10606, 10605
10305, 10558, 10559, 10607, 10606
10306, 10559, 10560, 10608, 10607
10307, 10560, 10561, 10609, 10608
10308, 10561, 10562, 10610, 10609
10309, 10562, 10563, 10611, 10610
10310, 10563, 10564, 10612, 10611
10311, 10564, 10565, 10613, 10612
10312, 10565, 10566, 10614, 10613
10313, 10566, 10567, 10615, 10614
10314, 10567, 10568, 10616, 10615
10315, 10568, 10569, 10617, 10616
10316, 10569, 10570, 10618, 10617
10317, 10570, 10571, 10619, 10618
10318, 10571, 10572, 10620, 10619
10319, 10572, 10573, 10621, 10620
10320, 10573, 10574, 10622, 10621
10321, 10574, 10575, 10623, 10622
10322, 10575, 10576, 10624, 10623
10323, 10576, 10577, 10625, 10624
10324, 10577, 10578, 10626, 10625
10325, 10578, 10579, 10627, 10626
10326, 10579, 10580, 10628, 10627
10327, 10580, 10581, 10629, 10628
10328, 10581, 10582, 10630, 10629
10329, 10582, 10583, 10631, 10630
10330, 10583, 10584, 10632, 10631
10331, 10584, 10585, 10633, 10632
10332, 10585, 10586, 10634, 10633
10333, 10586, 10587, 10635, 10634
10334, 10587, 10588, 10636, 10635
10335, 10588, 10589, 10637, 10636
10336, 10589, 10590, 10638, 10637
10337, 10590, 10591, 10639, 10638
10338, 10591, 10592, 10640, 10639
10339, 10592,   799,   800, 10640
10340,   841, 10593, 10641,   840
10341, 10593, 10594, 10642, 10641
10342, 10594, 10595, 10643, 10642
10343, 10595, 10596, 10644, 10643
10344, 10596, 10597, 10645, 10644
10345, 10597, 10598, 10646, 10645
10346, 10598, 10599, 10647, 10646
10347, 10599, 10600, 10648, 10647
10348, 10600, 10601, 10649, 10648
10349, 10601, 10602, 10650, 10649
10350, 10602, 10603, 10651, 10650
10351, 10603, 10604, 10652, 10651
10352, 10604, 10605, 10653, 10652
10353, 10605, 10606, 10654, 10653
10354, 10606, 10607, 10655, 10654
10355, 10607, 10608, 10656, 10655
10356, 10608, 10609, 10657, 10656
10357, 10609, 10610, 10658, 10657
10358, 10610, 10611, 10659, 10658
10359, 10611, 10612, 10660, 10659
10360, 10612, 10613, 10661, 10660
10361, 10613, 10614, 10662, 10661
10362, 10614, 10615, 10663, 10662
10363, 10615, 10616, 10664, 10663
10364, 10616, 10617, 10665, 10664
10365, 10617, 10618, 10666, 10665
10366, 10618, 10619, 10667, 10666
10367, 10619, 10620, 10668, 10667
10368, 10620, 10621, 10669, 10668
10369, 10621, 10622, 10670, 10669
10370, 10622, 10623, 10671, 10670
10371, 10623, 10624, 10672, 10671
10372, 10624, 10625, 10673, 10672
10373, 10625, 10626, 10674, 10673
10374, 10626, 10627, 10675, 10674
10375, 10627, 10628, 10676, 10675
10376, 10628, 10629, 10677, 10676
10377, 10629, 10630, 10678, 10677
10378, 10630, 10631, 10679, 10678
10379, 10631, 10632, 10680, 10679
10380, 10632, 10633, 10681, 10680
10381, 10633, 10634, 10682, 10681
10382, 10634, 10635, 10683, 10682
10383, 10635, 10636, 10684, 10683
10384, 10636, 10637, 10685, 10684
10385, 10637, 10638, 10686, 10685
10386, 10638, 10639, 10687, 10686
10387, 10639, 10640, 10688, 10687
10388, 10640,   800,   801, 10688
10389,   840, 10641, 10689,   839
10390, 10641, 10642, 10690, 10689
10391, 10642, 10643, 10691, 10690
10392, 10643, 10644, 10692, 10691
10393, 10644, 10645, 10693, 10692
10394, 10645, 10646, 10694, 10693
10395, 10646, 10647, 10695, 10694
10396, 10647, 10648, 10696, 10695
10397, 10648, 10649, 10697, 10696
10398, 10649, 10650, 10698, 10697
10399, 10650, 10651, 10699, 10698
10400, 10651, 10652, 10700, 10699
10401, 10652, 10653, 10701, 10700
10402, 10653, 10654, 10702, 10701
10403, 10654, 10655, 10703, 10702
10404, 10655, 10656, 10704, 10703
10405, 10656, 10657, 10705, 10704
10406, 10657, 10658, 10706, 10705
10407, 10658, 10659, 10707, 10706
10408, 10659, 10660, 10708, 10707
10409, 10660, 10661, 10709, 10708
10410, 10661, 10662, 10710, 10709
10411, 10662, 10663, 10711, 10710
10412, 10663, 10664, 10712, 10711
10413, 10664, 10665, 10713, 10712
10414, 10665, 10666, 10714, 10713
10415, 10666, 10667, 10715, 10714
10416, 10667, 10668, 10716, 10715
10417, 10668, 10669, 10717, 10716
10418, 10669, 10670, 10718, 10717
10419, 10670, 10671, 10719, 10718
10420, 10671, 10672, 10720, 10719
10421, 10672, 10673, 10721, 10720
10422, 10673, 10674, 10722, 10721
10423, 10674, 10675, 10723, 10722
10424, 10675, 10676, 10724, 10723
10425, 10676, 10677, 10725, 10724
10426, 10677, 10678, 10726, 10725
10427, 10678, 10679, 10727, 10726
10428, 10679, 10680, 10728, 10727
10429, 10680, 10681, 10729, 10728
10430, 10681, 10682, 10730, 10729
10431, 10682, 10683, 10731, 10730
10432, 10683, 10684, 10732, 10731
10433, 10684, 10685, 10733, 10732
10434, 10685, 10686, 10734, 10733
10435, 10686, 10687, 10735, 10734
10436, 10687, 10688, 10736, 10735
10437, 10688,   801,   802, 10736
10438,   839, 10689, 10737,   838
10439, 10689, 10690, 10738, 10737
10440, 10690, 10691, 10739, 10738
10441, 10691, 10692, 10740, 10739
10442, 10692, 10693, 10741, 10740
10443, 10693, 10694, 10742, 10741
10444, 10694, 10695, 10743, 10742
10445, 10695, 10696, 10744, 10743
10446, 10696, 10697, 10745, 10744
10447, 10697, 10698, 10746, 10745
10448, 10698, 10699, 10747, 10746
10449, 10699, 10700, 10748, 10747
10450, 10700, 10701, 10749, 10748
10451, 10701, 10702, 10750, 10749
10452, 10702, 10703, 10751, 10750
10453, 10703, 10704, 10752, 10751
10454, 10704, 10705, 10753, 10752
10455, 10705, 10706, 10754, 10753
10456, 10706, 10707, 10755, 10754
10457, 10707, 10708, 10756, 10755
10458, 10708, 10709, 10757, 10756
10459, 10709, 10710, 10758, 10757
10460, 10710, 10711, 10759, 10758
10461, 10711, 10712, 10760, 10759
10462, 10712, 10713, 10761, 10760
10463, 10713, 10714, 10762, 10761
10464, 10714, 10715, 10763, 10762
10465, 10715, 10716, 10764, 10763
10466, 10716, 10717, 10765, 10764
10467, 10717, 10718, 10766, 10765
10468, 10718, 10719, 10767, 10766
10469, 10719, 10720, 10768, 10767
10470, 10720, 10721, 10769, 10768
10471, 10721, 10722, 10770, 10769
10472, 10722, 10723, 10771, 10770
10473, 10723, 10724, 10772, 10771
10474, 10724, 10725, 10773, 10772
10475, 10725, 10726, 10774, 10773
10476, 10726, 10727, 10775, 10774
10477, 10727, 10728, 10776, 10775
10478, 10728, 10729, 10777, 10776
10479, 10729, 10730, 10778, 10777
10480, 10730, 10731, 10779, 10778
10481, 10731, 10732, 10780, 10779
10482, 10732, 10733, 10781, 10780
10483, 10733, 10734, 10782, 10781
10484, 10734, 10735, 10783, 10782
10485, 10735, 10736, 10784, 10783
10486, 10736,   802,   803, 10784
10487,   838, 10737, 10785,   837
10488, 10737, 10738, 10786, 10785
10489, 10738, 10739, 10787, 10786
10490, 10739, 10740, 10788, 10787
10491, 10740, 10741, 10789, 10788
10492, 10741, 10742, 10790, 10789
10493, 10742, 10743, 10791, 10790
10494, 10743, 10744, 10792, 10791
10495, 10744, 10745, 10793, 10792
10496, 10745, 10746, 10794, 10793
10497, 10746, 10747, 10795, 10794
10498, 10747, 10748, 10796, 10795
10499, 10748, 10749, 10797, 10796
10500, 10749, 10750, 10798, 10797
10501, 10750, 10751, 10799, 10798
10502, 10751, 10752, 10800, 10799
10503, 10752, 10753, 10801, 10800
10504, 10753, 10754, 10802, 10801
10505, 10754, 10755, 10803, 10802
10506, 10755, 10756, 10804, 10803
10507, 10756, 10757, 10805, 10804
10508, 10757, 10758, 10806, 10805
10509, 10758, 10759, 10807, 10806
10510, 10759, 10760, 10808, 10807
10511, 10760, 10761, 10809, 10808
10512, 10761, 10762, 10810, 10809
10513, 10762, 10763, 10811, 10810
10514, 10763, 10764, 10812, 10811
10515, 10764, 10765, 10813, 10812
10516, 10765, 10766, 10814, 10813
10517, 10766, 10767, 10815, 10814
10518, 10767, 10768, 10816, 10815
10519, 10768, 10769, 10817, 10816
10520, 10769, 10770, 10818, 10817
10521, 10770, 10771, 10819, 10818
10522, 10771, 10772, 10820, 10819
10523, 10772, 10773, 10821, 10820
10524, 10773, 10774, 10822, 10821
10525, 10774, 10775, 10823, 10822
10526, 10775, 10776, 10824, 10823
10527, 10776, 10777, 10825, 10824
10528, 10777, 10778, 10826, 10825
10529, 10778, 10779, 10827, 10826
10530, 10779, 10780, 10828, 10827
10531, 10780, 10781, 10829, 10828
10532, 10781, 10782, 10830, 10829
10533, 10782, 10783, 10831, 10830
10534, 10783, 10784, 10832, 10831
10535, 10784,   803,   804, 10832
10536,   837, 10785, 10833,   836
10537, 10785, 10786, 10834, 10833
10538, 10786, 10787, 10835, 10834
10539, 10787, 10788, 10836, 10835
10540, 10788, 10789, 10837, 10836
10541, 10789, 10790, 10838, 10837
10542, 10790, 10791, 10839, 10838
10543, 10791, 10792, 10840, 10839
10544, 10792, 10793, 10841, 10840
10545, 10793, 10794, 10842, 10841
10546, 10794, 10795, 10843, 10842
10547, 10795, 10796, 10844, 10843
10548, 10796, 10797, 10845, 10844
10549, 10797, 10798, 10846, 10845
10550, 10798, 10799, 10847, 10846
10551, 10799, 10800, 10848, 10847
10552, 10800, 10801, 10849, 10848
10553, 10801, 10802, 10850, 10849
10554, 10802, 10803, 10851, 10850
10555, 10803, 10804, 10852, 10851
10556, 10804, 10805, 10853, 10852
10557, 10805, 10806, 10854, 10853
10558, 10806, 10807, 10855, 10854
10559, 10807, 10808, 10856, 10855
10560, 10808, 10809, 10857, 10856
10561, 10809, 10810, 10858, 10857
10562, 10810, 10811, 10859, 10858
10563, 10811, 10812, 10860, 10859
10564, 10812, 10813, 10861, 10860
10565, 10813, 10814, 10862, 10861
10566, 10814, 10815, 10863, 10862
10567, 10815, 10816, 10864, 10863
10568, 10816, 10817, 10865, 10864
10569, 10817, 10818, 10866, 10865
10570, 10818, 10819, 10867, 10866
10571, 10819, 10820, 10868, 10867
10572, 10820, 10821, 10869, 10868
10573, 10821, 10822, 10870, 10869
10574, 10822, 10823, 10871, 10870
10575, 10823, 10824, 10872, 10871
10576, 10824, 10825, 10873, 10872
10577, 10825, 10826, 10874, 10873
10578, 10826, 10827, 10875, 10874
10579, 10827, 10828, 10876, 10875
10580, 10828, 10829, 10877, 10876
10581, 10829, 10830, 10878, 10877
10582, 10830, 10831, 10879, 10878
10583, 10831, 10832, 10880, 10879
10584, 10832,   804,   805, 10880
10585,   836, 10833, 10881,   835
10586, 10833, 10834, 10882, 10881
10587, 10834, 10835, 10883, 10882
10588, 10835, 10836, 10884, 10883
10589, 10836, 10837, 10885, 10884
10590, 10837, 10838, 10886, 10885
10591, 10838, 10839, 10887, 10886
10592, 10839, 10840, 10888, 10887
10593, 10840, 10841, 10889, 10888
10594, 10841, 10842, 10890, 10889
10595, 10842, 10843, 10891, 10890
10596, 10843, 10844, 10892, 10891
10597, 10844, 10845, 10893, 10892
10598, 10845, 10846, 10894, 10893
10599, 10846, 10847, 10895, 10894
10600, 10847, 10848, 10896, 10895
10601, 10848, 10849, 10897, 10896
10602, 10849, 10850, 10898, 10897
10603, 10850, 10851, 10899, 10898
10604, 10851, 10852, 10900, 10899
10605, 10852, 10853, 10901, 10900
10606, 10853, 10854, 10902, 10901
10607, 10854, 10855, 10903, 10902
10608, 10855, 10856, 10904, 10903
10609, 10856, 10857, 10905, 10904
10610, 10857, 10858, 10906, 10905
10611, 10858, 10859, 10907, 10906
10612, 10859, 10860, 10908, 10907
10613, 10860, 10861, 10909, 10908
10614, 10861, 10862, 10910, 10909
10615, 10862, 10863, 10911, 10910
10616, 10863, 10864, 10912, 10911
10617, 10864, 10865, 10913, 10912
10618, 10865, 10866, 10914, 10913
10619, 10866, 10867, 10915, 10914
10620, 10867, 10868, 10916, 10915
10621, 10868, 10869, 10917, 10916
10622, 10869, 10870, 10918, 10917
10623, 10870, 10871, 10919, 10918
10624, 10871, 10872, 10920, 10919
10625, 10872, 10873, 10921, 10920
10626, 10873, 10874, 10922, 10921
10627, 10874, 10875, 10923, 10922
10628, 10875, 10876, 10924, 10923
10629, 10876, 10877, 10925, 10924
10630, 10877, 10878, 10926, 10925
10631, 10878, 10879, 10927, 10926
10632, 10879, 10880, 10928, 10927
10633, 10880,   805,   806, 10928
10634,   835, 10881, 10929,   834
10635, 10881, 10882, 10930, 10929
10636, 10882, 10883, 10931, 10930
10637, 10883, 10884, 10932, 10931
10638, 10884, 10885, 10933, 10932
10639, 10885, 10886, 10934, 10933
10640, 10886, 10887, 10935, 10934
10641, 10887, 10888, 10936, 10935
10642, 10888, 10889, 10937, 10936
10643, 10889, 10890, 10938, 10937
10644, 10890, 10891, 10939, 10938
10645, 10891, 10892, 10940, 10939
10646, 10892, 10893, 10941, 10940
10647, 10893, 10894, 10942, 10941
10648, 10894, 10895, 10943, 10942
10649, 10895, 10896, 10944, 10943
10650, 10896, 10897, 10945, 10944
10651, 10897, 10898, 10946, 10945
10652, 10898, 10899, 10947, 10946
10653, 10899, 10900, 10948, 10947
10654, 10900, 10901, 10949, 10948
10655, 10901, 10902, 10950, 10949
10656, 10902, 10903, 10951, 10950
10657, 10903, 10904, 10952, 10951
10658, 10904, 10905, 10953, 10952
10659, 10905, 10906, 10954, 10953
10660, 10906, 10907, 10955, 10954
10661, 10907, 10908, 10956, 10955
10662, 10908, 10909, 10957, 10956
10663, 10909, 10910, 10958, 10957
10664, 10910, 10911, 10959, 10958
10665, 10911, 10912, 10960, 10959
10666, 10912, 10913, 10961, 10960
10667, 10913, 10914, 10962, 10961
10668, 10914, 10915, 10963, 10962
10669, 10915, 10916, 10964, 10963
10670, 10916, 10917, 10965, 10964
10671, 10917, 10918, 10966, 10965
10672, 10918, 10919, 10967, 10966
10673, 10919, 10920, 10968, 10967
10674, 10920, 10921, 10969, 10968
10675, 10921, 10922, 10970, 10969
10676, 10922, 10923, 10971, 10970
10677, 10923, 10924, 10972, 10971
10678, 10924, 10925, 10973, 10972
10679, 10925, 10926, 10974, 10973
10680, 10926, 10927, 10975, 10974
10681, 10927, 10928, 10976, 10975
10682, 10928,   806,   807, 10976
10683,   834, 10929, 10977,   833
10684, 10929, 10930, 10978, 10977
10685, 10930, 10931, 10979, 10978
10686, 10931, 10932, 10980, 10979
10687, 10932, 10933, 10981, 10980
10688, 10933, 10934, 10982, 10981
10689, 10934, 10935, 10983, 10982
10690, 10935, 10936, 10984, 10983
10691, 10936, 10937, 10985, 10984
10692, 10937, 10938, 10986, 10985
10693, 10938, 10939, 10987, 10986
10694, 10939, 10940, 10988, 10987
10695, 10940, 10941, 10989, 10988
10696, 10941, 10942, 10990, 10989
10697, 10942, 10943, 10991, 10990
10698, 10943, 10944, 10992, 10991
10699, 10944, 10945, 10993, 10992
10700, 10945, 10946, 10994, 10993
10701, 10946, 10947, 10995, 10994
10702, 10947, 10948, 10996, 10995
10703, 10948, 10949, 10997, 10996
10704, 10949, 10950, 10998, 10997
10705, 10950, 10951, 10999, 10998
10706, 10951, 10952, 11000, 10999
10707, 10952, 10953, 11001, 11000
10708, 10953, 10954, 11002, 11001
10709, 10954, 10955, 11003, 11002
10710, 10955, 10956, 11004, 11003
10711, 10956, 10957, 11005, 11004
10712, 10957, 10958, 11006, 11005
10713, 10958, 10959, 11007, 11006
10714, 10959, 10960, 11008, 11007
10715, 10960, 10961, 11009, 11008
10716, 10961, 10962, 11010, 11009
10717, 10962, 10963, 11011, 11010
10718, 10963, 10964, 11012, 11011
10719, 10964, 10965, 11013, 11012
10720, 10965, 10966, 11014, 11013
10721, 10966, 10967, 11015, 11014
10722, 10967, 10968, 11016, 11015
10723, 10968, 10969, 11017, 11016
10724, 10969, 10970, 11018, 11017
10725, 10970, 10971, 11019, 11018
10726, 10971, 10972, 11020, 11019
10727, 10972, 10973, 11021, 11020
10728, 10973, 10974, 11022, 11021
10729, 10974, 10975, 11023, 11022
10730, 10975, 10976, 11024, 11023
10731, 10976,   807,   808, 11024
10732,   833, 10977, 11025,   832
10733, 10977, 10978, 11026, 11025
10734, 10978, 10979, 11027, 11026
10735, 10979, 10980, 11028, 11027
10736, 10980, 10981, 11029, 11028
10737, 10981, 10982, 11030, 11029
10738, 10982, 10983, 11031, 11030
10739, 10983, 10984, 11032, 11031
10740, 10984, 10985, 11033, 11032
10741, 10985, 10986, 11034, 11033
10742, 10986, 10987, 11035, 11034
10743, 10987, 10988, 11036, 11035
10744, 10988, 10989, 11037, 11036
10745, 10989, 10990, 11038, 11037
10746, 10990, 10991, 11039, 11038
10747, 10991, 10992, 11040, 11039
10748, 10992, 10993, 11041, 11040
10749, 10993, 10994, 11042, 11041
10750, 10994, 10995, 11043, 11042
10751, 10995, 10996, 11044, 11043
10752, 10996, 10997, 11045, 11044
10753, 10997, 10998, 11046, 11045
10754, 10998, 10999, 11047, 11046
10755, 10999, 11000, 11048, 11047
10756, 11000, 11001, 11049, 11048
10757, 11001, 11002, 11050, 11049
10758, 11002, 11003, 11051, 11050
10759, 11003, 11004, 11052, 11051
10760, 11004, 11005, 11053, 11052
10761, 11005, 11006, 11054, 11053
10762, 11006, 11007, 11055, 11054
10763, 11007, 11008, 11056, 11055
10764, 11008, 11009, 11057, 11056
10765, 11009, 11010, 11058, 11057
10766, 11010, 11011, 11059, 11058
10767, 11011, 11012, 11060, 11059
10768, 11012, 11013, 11061, 11060
10769, 11013, 11014, 11062, 11061
10770, 11014, 11015, 11063, 11062
10771, 11015, 11016, 11064, 11063
10772, 11016, 11017, 11065, 11064
10773, 11017, 11018, 11066, 11065
10774, 11018, 11019, 11067, 11066
10775, 11019, 11020, 11068, 11067
10776, 11020, 11021, 11069, 11068
10777, 11021, 11022, 11070, 11069
10778, 11022, 11023, 11071, 11070
10779, 11023, 11024, 11072, 11071
10780, 11024,   808,   809, 11072
10781,   832, 11025, 11073,   831
10782, 11025, 11026, 11074, 11073
10783, 11026, 11027, 11075, 11074
10784, 11027, 11028, 11076, 11075
10785, 11028, 11029, 11077, 11076
10786, 11029, 11030, 11078, 11077
10787, 11030, 11031, 11079, 11078
10788, 11031, 11032, 11080, 11079
10789, 11032, 11033, 11081, 11080
10790, 11033, 11034, 11082, 11081
10791, 11034, 11035, 11083, 11082
10792, 11035, 11036, 11084, 11083
10793, 11036, 11037, 11085, 11084
10794, 11037, 11038, 11086, 11085
10795, 11038, 11039, 11087, 11086
10796, 11039, 11040, 11088, 11087
10797, 11040, 11041, 11089, 11088
10798, 11041, 11042, 11090, 11089
10799, 11042, 11043, 11091, 11090
10800, 11043, 11044, 11092, 11091
10801, 11044, 11045, 11093, 11092
10802, 11045, 11046, 11094, 11093
10803, 11046, 11047, 11095, 11094
10804, 11047, 11048, 11096, 11095
10805, 11048, 11049, 11097, 11096
10806, 11049, 11050, 11098, 11097
10807, 11050, 11051, 11099, 11098
10808, 11051, 11052, 11100, 11099
10809, 11052, 11053, 11101, 11100
10810, 11053, 11054, 11102, 11101
10811, 11054, 11055, 11103, 11102
10812, 11055, 11056, 11104, 11103
10813, 11056, 11057, 11105, 11104
10814, 11057, 11058, 11106, 11105
10815, 11058, 11059, 11107, 11106
10816, 11059, 11060, 11108, 11107
10817, 11060, 11061, 11109, 11108
10818, 11061, 11062, 11110, 11109
10819, 11062, 11063, 11111, 11110
10820, 11063, 11064, 11112, 11111
10821, 11064, 11065, 11113, 11112
10822, 11065, 11066, 11114, 11113
10823, 11066, 11067, 11115, 11114
10824, 11067, 11068, 11116, 11115
10825, 11068, 11069, 11117, 11116
10826, 11069, 11070, 11118, 11117
10827, 11070, 11071, 11119, 11118
10828, 11071, 11072, 11120, 11119
10829, 11072,   809,   810, 11120
10830,   831, 11073, 11121,   830
10831, 11073, 11074, 11122, 11121
10832, 11074, 11075, 11123, 11122
10833, 11075, 11076, 11124, 11123
10834, 11076, 11077, 11125, 11124
10835, 11077, 11078, 11126, 11125
10836, 11078, 11079, 11127, 11126
10837, 11079, 11080, 11128, 11127
10838, 11080, 11081, 11129, 11128
10839, 11081, 11082, 11130, 11129
10840, 11082, 11083, 11131, 11130
10841, 11083, 11084, 11132, 11131
10842, 11084, 11085, 11133, 11132
10843, 11085, 11086, 11134, 11133
10844, 11086, 11087, 11135, 11134
10845, 11087, 11088, 11136, 11135
10846, 11088, 11089, 11137, 11136
10847, 11089, 11090, 11138, 11137
10848, 11090, 11091, 11139, 11138
10849, 11091, 11092, 11140, 11139
10850, 11092, 11093, 11141, 11140
10851, 11093, 11094, 11142, 11141
10852, 11094, 11095, 11143, 11142
10853, 11095, 11096, 11144, 11143
10854, 11096, 11097, 11145, 11144
10855, 11097, 11098, 11146, 11145
10856, 11098, 11099, 11147, 11146
10857, 11099, 11100, 11148, 11147
10858, 11100, 11101, 11149, 11148
10859, 11101, 11102, 11150, 11149
10860, 11102, 11103, 11151, 11150
10861, 11103, 11104, 11152, 11151
10862, 11104, 11105, 11153, 11152
10863, 11105, 11106, 11154, 11153
10864, 11106, 11107, 11155, 11154
10865, 11107, 11108, 11156, 11155
10866, 11108, 11109, 11157, 11156
10867, 11109, 11110, 11158, 11157
10868, 11110, 11111, 11159, 11158
10869, 11111, 11112, 11160, 11159
10870, 11112, 11113, 11161, 11160
10871, 11113, 11114, 11162, 11161
10872, 11114, 11115, 11163, 11162
10873, 11115, 11116, 11164, 11163
10874, 11116, 11117, 11165, 11164
10875, 11117, 11118, 11166, 11165
10876, 11118, 11119, 11167, 11166
10877, 11119, 11120, 11168, 11167
10878, 11120,   810,   811, 11168
10879,   830, 11121, 11169,   829
10880, 11121, 11122, 11170, 11169
10881, 11122, 11123, 11171, 11170
10882, 11123, 11124, 11172, 11171
10883, 11124, 11125, 11173, 11172
10884, 11125, 11126, 11174, 11173
10885, 11126, 11127, 11175, 11174
10886, 11127, 11128, 11176, 11175
10887, 11128, 11129, 11177, 11176
10888, 11129, 11130, 11178, 11177
10889, 11130, 11131, 11179, 11178
10890, 11131, 11132, 11180, 11179
10891, 11132, 11133, 11181, 11180
10892, 11133, 11134, 11182, 11181
10893, 11134, 11135, 11183, 11182
10894, 11135, 11136, 11184, 11183
10895, 11136, 11137, 11185, 11184
10896, 11137, 11138, 11186, 11185
10897, 11138, 11139, 11187, 11186
10898, 11139, 11140, 11188, 11187
10899, 11140, 11141, 11189, 11188
10900, 11141, 11142, 11190, 11189
10901, 11142, 11143, 11191, 11190
10902, 11143, 11144, 11192, 11191
10903, 11144, 11145, 11193, 11192
10904, 11145, 11146, 11194, 11193
10905, 11146, 11147, 11195, 11194
10906, 11147, 11148, 11196, 11195
10907, 11148, 11149, 11197, 11196
10908, 11149, 11150, 11198, 11197
10909, 11150, 11151, 11199, 11198
10910, 11151, 11152, 11200, 11199
10911, 11152, 11153, 11201, 11200
10912, 11153, 11154, 11202, 11201
10913, 11154, 11155, 11203, 11202
10914, 11155, 11156, 11204, 11203
10915, 11156, 11157, 11205, 11204
10916, 11157, 11158, 11206, 11205
10917, 11158, 11159, 11207, 11206
10918, 11159, 11160, 11208, 11207
10919, 11160, 11161, 11209, 11208
10920, 11161, 11162, 11210, 11209
10921, 11162, 11163, 11211, 11210
10922, 11163, 11164, 11212, 11211
10923, 11164, 11165, 11213, 11212
10924, 11165, 11166, 11214, 11213
10925, 11166, 11167, 11215, 11214
10926, 11167, 11168, 11216, 11215
10927, 11168,   811,   812, 11216
10928,   829, 11169, 11217,   828
10929, 11169, 11170, 11218, 11217
10930, 11170, 11171, 11219, 11218
10931, 11171, 11172, 11220, 11219
10932, 11172, 11173, 11221, 11220
10933, 11173, 11174, 11222, 11221
10934, 11174, 11175, 11223, 11222
10935, 11175, 11176, 11224, 11223
10936, 11176, 11177, 11225, 11224
10937, 11177, 11178, 11226, 11225
10938, 11178, 11179, 11227, 11226
10939, 11179, 11180, 11228, 11227
10940, 11180, 11181, 11229, 11228
10941, 11181, 11182, 11230, 11229
10942, 11182, 11183, 11231, 11230
10943, 11183, 11184, 11232, 11231
10944, 11184, 11185, 11233, 11232
10945, 11185, 11186, 11234, 11233
10946, 11186, 11187, 11235, 11234
10947, 11187, 11188, 11236, 11235
10948, 11188, 11189, 11237, 11236
10949, 11189, 11190, 11238, 11237
10950, 11190, 11191, 11239, 11238
10951, 11191, 11192, 11240, 11239
10952, 11192, 11193, 11241, 11240
10953, 11193, 11194, 11242, 11241
10954, 11194, 11195, 11243, 11242
10955, 11195, 11196, 11244, 11243
10956, 11196, 11197, 11245, 11244
10957, 11197, 11198, 11246, 11245
10958, 11198, 11199, 11247, 11246
10959, 11199, 11200, 11248, 11247
10960, 11200, 11201, 11249, 11248
10961, 11201, 11202, 11250, 11249
10962, 11202, 11203, 11251, 11250
10963, 11203, 11204, 11252, 11251
10964, 11204, 11205, 11253, 11252
10965, 11205, 11206, 11254, 11253
10966, 11206, 11207, 11255, 11254
10967, 11207, 11208, 11256, 11255
10968, 11208, 11209, 11257, 11256
10969, 11209, 11210, 11258, 11257
10970, 11210, 11211, 11259, 11258
10971, 11211, 11212, 11260, 11259
10972, 11212, 11213, 11261, 11260
10973, 11213, 11214, 11262, 11261
10974, 11214, 11215, 11263, 11262
10975, 11215, 11216, 11264, 11263
10976, 11216,   812,   813, 11264
10977,   828, 11217, 11265,   827
10978, 11217, 11218, 11266, 11265
10979, 11218, 11219, 11267, 11266
10980, 11219, 11220, 11268, 11267
10981, 11220, 11221, 11269, 11268
10982, 11221, 11222, 11270, 11269
10983, 11222, 11223, 11271, 11270
10984, 11223, 11224, 11272, 11271
10985, 11224, 11225, 11273, 11272
10986, 11225, 11226, 11274, 11273
10987, 11226, 11227, 11275, 11274
10988, 11227, 11228, 11276, 11275
10989, 11228, 11229, 11277, 11276
10990, 11229, 11230, 11278, 11277
10991, 11230, 11231, 11279, 11278
10992, 11231, 11232, 11280, 11279
10993, 11232, 11233, 11281, 11280
10994, 11233, 11234, 11282, 11281
10995, 11234, 11235, 11283, 11282
10996, 11235, 11236, 11284, 11283
10997, 11236, 11237, 11285, 11284
10998, 11237, 11238, 11286, 11285
10999, 11238, 11239, 11287, 11286
11000, 11239, 11240, 11288, 11287
11001, 11240, 11241, 11289, 11288
11002, 11241, 11242, 11290, 11289
11003, 11242, 11243, 11291, 11290
11004, 11243, 11244, 11292, 11291
11005, 11244, 11245, 11293, 11292
11006, 11245, 11246, 11294, 11293
11007, 11246, 11247, 11295, 11294
11008, 11247, 11248, 11296, 11295
11009, 11248, 11249, 11297, 11296
11010, 11249, 11250, 11298, 11297
11011, 11250, 11251, 11299, 11298
11012, 11251, 11252, 11300, 11299
11013, 11252, 11253, 11301, 11300
11014, 11253, 11254, 11302, 11301
11015, 11254, 11255, 11303, 11302
11016, 11255, 11256, 11304, 11303
11017, 11256, 11257, 11305, 11304
11018, 11257, 11258, 11306, 11305
11019, 11258, 11259, 11307, 11306
11020, 11259, 11260, 11308, 11307
11021, 11260, 11261, 11309, 11308
11022, 11261, 11262, 11310, 11309
11023, 11262, 11263, 11311, 11310
11024, 11263, 11264, 11312, 11311
11025, 11264,   813,   814, 11312
11026,   827, 11265, 11313,   826
11027, 11265, 11266, 11314, 11313
11028, 11266, 11267, 11315, 11314
11029, 11267, 11268, 11316, 11315
11030, 11268, 11269, 11317, 11316
11031, 11269, 11270, 11318, 11317
11032, 11270, 11271, 11319, 11318
11033, 11271, 11272, 11320, 11319
11034, 11272, 11273, 11321, 11320
11035, 11273, 11274, 11322, 11321
11036, 11274, 11275, 11323, 11322
11037, 11275, 11276, 11324, 11323
11038, 11276, 11277, 11325, 11324
11039, 11277, 11278, 11326, 11325
11040, 11278, 11279, 11327, 11326
11041, 11279, 11280, 11328, 11327
11042, 11280, 11281, 11329, 11328
11043, 11281, 11282, 11330, 11329
11044, 11282, 11283, 11331, 11330
11045, 11283, 11284, 11332, 11331
11046, 11284, 11285, 11333, 11332
11047, 11285, 11286, 11334, 11333
11048, 11286, 11287, 11335, 11334
11049, 11287, 11288, 11336, 11335
11050, 11288, 11289, 11337, 11336
11051, 11289, 11290, 11338, 11337
11052, 11290, 11291, 11339, 11338
11053, 11291, 11292, 11340, 11339
11054, 11292, 11293, 11341, 11340
11055, 11293, 11294, 11342, 11341
11056, 11294, 11295, 11343, 11342
11057, 11295, 11296, 11344, 11343
11058, 11296, 11297, 11345, 11344
11059, 11297, 11298, 11346, 11345
11060, 11298, 11299, 11347, 11346
11061, 11299, 11300, 11348, 11347
11062, 11300, 11301, 11349, 11348
11063, 11301, 11302, 11350, 11349
11064, 11302, 11303, 11351, 11350
11065, 11303, 11304, 11352, 11351
11066, 11304, 11305, 11353, 11352
11067, 11305, 11306, 11354, 11353
11068, 11306, 11307, 11355, 11354
11069, 11307, 11308, 11356, 11355
11070, 11308, 11309, 11357, 11356
11071, 11309, 11310, 11358, 11357
11072, 11310, 11311, 11359, 11358
11073, 11311, 11312, 11360, 11359
11074, 11312,   814,   815, 11360
11075,   826, 11313, 11361,   825
11076, 11313, 11314, 11362, 11361
11077, 11314, 11315, 11363, 11362
11078, 11315, 11316, 11364, 11363
11079, 11316, 11317, 11365, 11364
11080, 11317, 11318, 11366, 11365
11081, 11318, 11319, 11367, 11366
11082, 11319, 11320, 11368, 11367
11083, 11320, 11321, 11369, 11368
11084, 11321, 11322, 11370, 11369
11085, 11322, 11323, 11371, 11370
11086, 11323, 11324, 11372, 11371
11087, 11324, 11325, 11373, 11372
11088, 11325, 11326, 11374, 11373
11089, 11326, 11327, 11375, 11374
11090, 11327, 11328, 11376, 11375
11091, 11328, 11329, 11377, 11376
11092, 11329, 11330, 11378, 11377
11093, 11330, 11331, 11379, 11378
11094, 11331, 11332, 11380, 11379
11095, 11332, 11333, 11381, 11380
11096, 11333, 11334, 11382, 11381
11097, 11334, 11335, 11383, 11382
11098, 11335, 11336, 11384, 11383
11099, 11336, 11337, 11385, 11384
11100, 11337, 11338, 11386, 11385
11101, 11338, 11339, 11387, 11386
11102, 11339, 11340, 11388, 11387
11103, 11340, 11341, 11389, 11388
11104, 11341, 11342, 11390, 11389
11105, 11342, 11343, 11391, 11390
11106, 11343, 11344, 11392, 11391
11107, 11344, 11345, 11393, 11392
11108, 11345, 11346, 11394, 11393
11109, 11346, 11347, 11395, 11394
11110, 11347, 11348, 11396, 11395
11111, 11348, 11349, 11397, 11396
11112, 11349, 11350, 11398, 11397
11113, 11350, 11351, 11399, 11398
11114, 11351, 11352, 11400, 11399
11115, 11352, 11353, 11401, 11400
11116, 11353, 11354, 11402, 11401
11117, 11354, 11355, 11403, 11402
11118, 11355, 11356, 11404, 11403
11119, 11356, 11357, 11405, 11404
11120, 11357, 11358, 11406, 11405
11121, 11358, 11359, 11407, 11406
11122, 11359, 11360, 11408, 11407
11123, 11360,   815,   816, 11408
11124,   825, 11361, 11409,   824
11125, 11361, 11362, 11410, 11409
11126, 11362, 11363, 11411, 11410
11127, 11363, 11364, 11412, 11411
11128, 11364, 11365, 11413, 11412
11129, 11365, 11366, 11414, 11413
11130, 11366, 11367, 11415, 11414
11131, 11367, 11368, 11416, 11415
11132, 11368, 11369, 11417, 11416
11133, 11369, 11370, 11418, 11417
11134, 11370, 11371, 11419, 11418
11135, 11371, 11372, 11420, 11419
11136, 11372, 11373, 11421, 11420
11137, 11373, 11374, 11422, 11421
11138, 11374, 11375, 11423, 11422
11139, 11375, 11376, 11424, 11423
11140, 11376, 11377, 11425, 11424
11141, 11377, 11378, 11426, 11425
11142, 11378, 11379, 11427, 11426
11143, 11379, 11380, 11428, 11427
11144, 11380, 11381, 11429, 11428
11145, 11381, 11382, 11430, 11429
11146, 11382, 11383, 11431, 11430
11147, 11383, 11384, 11432, 11431
11148, 11384, 11385, 11433, 11432
11149, 11385, 11386, 11434, 11433
11150, 11386, 11387, 11435, 11434
11151, 11387, 11388, 11436, 11435
11152, 11388, 11389, 11437, 11436
11153, 11389, 11390, 11438, 11437
11154, 11390, 11391, 11439, 11438
11155, 11391, 11392, 11440, 11439
11156, 11392, 11393, 11441, 11440
11157, 11393, 11394, 11442, 11441
11158, 11394, 11395, 11443, 11442
11159, 11395, 11396, 11444, 11443
11160, 11396, 11397, 11445, 11444
11161, 11397, 11398, 11446, 11445
11162, 11398, 11399, 11447, 11446
11163, 11399, 11400, 11448, 11447
11164, 11400, 11401, 11449, 11448
11165, 11401, 11402, 11450, 11449
11166, 11402, 11403, 11451, 11450
11167, 11403, 11404, 11452, 11451
11168, 11404, 11405, 11453, 11452
11169, 11405, 11406, 11454, 11453
11170, 11406, 11407, 11455, 11454
11171, 11407, 11408, 11456, 11455
11172, 11408,   816,   817, 11456
11173,   824, 11409, 11457,   823
11174, 11409, 11410, 11458, 11457
11175, 11410, 11411, 11459, 11458
11176, 11411, 11412, 11460, 11459
11177, 11412, 11413, 11461, 11460
11178, 11413, 11414, 11462, 11461
11179, 11414, 11415, 11463, 11462
11180, 11415, 11416, 11464, 11463
11181, 11416, 11417, 11465, 11464
11182, 11417, 11418, 11466, 11465
11183, 11418, 11419, 11467, 11466
11184, 11419, 11420, 11468, 11467
11185, 11420, 11421, 11469, 11468
11186, 11421, 11422, 11470, 11469
11187, 11422, 11423, 11471, 11470
11188, 11423, 11424, 11472, 11471
11189, 11424, 11425, 11473, 11472
11190, 11425, 11426, 11474, 11473
11191, 11426, 11427, 11475, 11474
11192, 11427, 11428, 11476, 11475
11193, 11428, 11429, 11477, 11476
11194, 11429, 11430, 11478, 11477
11195, 11430, 11431, 11479, 11478
11196, 11431, 11432, 11480, 11479
11197, 11432, 11433, 11481, 11480
11198, 11433, 11434, 11482, 11481
11199, 11434, 11435, 11483, 11482
11200, 11435, 11436, 11484, 11483
11201, 11436, 11437, 11485, 11484
11202, 11437, 11438, 11486, 11485
11203, 11438, 11439, 11487, 11486
11204, 11439, 11440, 11488, 11487
11205, 11440, 11441, 11489, 11488
11206, 11441, 11442, 11490, 11489
11207, 11442, 11443, 11491, 11490
11208, 11443, 11444, 11492, 11491
11209, 11444, 11445, 11493, 11492
11210, 11445, 11446, 11494, 11493
11211, 11446, 11447, 11495, 11494
11212, 11447, 11448, 11496, 11495
11213, 11448, 11449, 11497, 11496
11214, 11449, 11450, 11498, 11497
11215, 11450, 11451, 11499, 11498
11216, 11451, 11452, 11500, 11499
11217, 11452, 11453, 11501, 11500
11218, 11453, 11454, 11502, 11501
11219, 11454, 11455, 11503, 11502
11220, 11455, 11456, 11504, 11503
11221, 11456,   817,   818, 11504
11222,   823, 11457, 11505,   822
11223, 11457, 11458, 11506, 11505
11224, 11458, 11459, 11507, 11506
11225, 11459, 11460, 11508, 11507
11226, 11460, 11461, 11509, 11508
11227, 11461, 11462, 11510, 11509
11228, 11462, 11463, 11511, 11510
11229, 11463, 11464, 11512, 11511
11230, 11464, 11465, 11513, 11512
11231, 11465, 11466, 11514, 11513
11232, 11466, 11467, 11515, 11514
11233, 11467, 11468, 11516, 11515
11234, 11468, 11469, 11517, 11516
11235, 11469, 11470, 11518, 11517
11236, 11470, 11471, 11519, 11518
11237, 11471, 11472, 11520, 11519
11238, 11472, 11473, 11521, 11520
11239, 11473, 11474, 11522, 11521
11240, 11474, 11475, 11523, 11522
11241, 11475, 11476, 11524, 11523
11242, 11476, 11477, 11525, 11524
11243, 11477, 11478, 11526, 11525
11244, 11478, 11479, 11527, 11526
11245, 11479, 11480, 11528, 11527
11246, 11480, 11481, 11529, 11528
11247, 11481, 11482, 11530, 11529
11248, 11482, 11483, 11531, 11530
11249, 11483, 11484, 11532, 11531
11250, 11484, 11485, 11533, 11532
11251, 11485, 11486, 11534, 11533
11252, 11486, 11487, 11535, 11534
11253, 11487, 11488, 11536, 11535
11254, 11488, 11489, 11537, 11536
11255, 11489, 11490, 11538, 11537
11256, 11490, 11491, 11539, 11538
11257, 11491, 11492, 11540, 11539
11258, 11492, 11493, 11541, 11540
11259, 11493, 11494, 11542, 11541
11260, 11494, 11495, 11543, 11542
11261, 11495, 11496, 11544, 11543
11262, 11496, 11497, 11545, 11544
11263, 11497, 11498, 11546, 11545
11264, 11498, 11499, 11547, 11546
11265, 11499, 11500, 11548, 11547
11266, 11500, 11501, 11549, 11548
11267, 11501, 11502, 11550, 11549
11268, 11502, 11503, 11551, 11550
11269, 11503, 11504, 11552, 11551
11270, 11504,   818,   819, 11552
11271,   822, 11505, 11553,   821
11272, 11505, 11506, 11554, 11553
11273, 11506, 11507, 11555, 11554
11274, 11507, 11508, 11556, 11555
11275, 11508, 11509, 11557, 11556
11276, 11509, 11510, 11558, 11557
11277, 11510, 11511, 11559, 11558
11278, 11511, 11512, 11560, 11559
11279, 11512, 11513, 11561, 11560
11280, 11513, 11514, 11562, 11561
11281, 11514, 11515, 11563, 11562
11282, 11515, 11516, 11564, 11563
11283, 11516, 11517, 11565, 11564
11284, 11517, 11518, 11566, 11565
11285, 11518, 11519, 11567, 11566
11286, 11519, 11520, 11568, 11567
11287, 11520, 11521, 11569, 11568
11288, 11521, 11522, 11570, 11569
11289, 11522, 11523, 11571, 11570
11290, 11523, 11524, 11572, 11571
11291, 11524, 11525, 11573, 11572
11292, 11525, 11526, 11574, 11573
11293, 11526, 11527, 11575, 11574
11294, 11527, 11528, 11576, 11575
11295, 11528, 11529, 11577, 11576
11296, 11529, 11530, 11578, 11577
11297, 11530, 11531, 11579, 11578
11298, 11531, 11532, 11580, 11579
11299, 11532, 11533, 11581, 11580
11300, 11533, 11534, 11582, 11581
11301, 11534, 11535, 11583, 11582
11302, 11535, 11536, 11584, 11583
11303, 11536, 11537, 11585, 11584
11304, 11537, 11538, 11586, 11585
11305, 11538, 11539, 11587, 11586
11306, 11539, 11540, 11588, 11587
11307, 11540, 11541, 11589, 11588
11308, 11541, 11542, 11590, 11589
11309, 11542, 11543, 11591, 11590
11310, 11543, 11544, 11592, 11591
11311, 11544, 11545, 11593, 11592
11312, 11545, 11546, 11594, 11593
11313, 11546, 11547, 11595, 11594
11314, 11547, 11548, 11596, 11595
11315, 11548, 11549, 11597, 11596
11316, 11549, 11550, 11598, 11597
11317, 11550, 11551, 11599, 11598
11318, 11551, 11552, 11600, 11599
11319, 11552,   819,   820, 11600
11320,   821, 11553,   613,    13
11321, 11553, 11554,   614,   613
11322, 11554, 11555,   615,   614
11323, 11555, 11556,   616,   615
11324, 11556, 11557,   617,   616
11325, 11557, 11558,   618,   617
11326, 11558, 11559,   619,   618
11327, 11559, 11560,   620,   619
11328, 11560, 11561,   621,   620
11329, 11561, 11562,   622,   621
11330, 11562, 11563,   623,   622
11331, 11563, 11564,   624,   623
11332, 11564, 11565,   625,   624
11333, 11565, 11566,   626,   625
11334, 11566, 11567,   627,   626
11335, 11567, 11568,   628,   627
11336, 11568, 11569,   629,   628
11337, 11569, 11570,   630,   629
11338, 11570, 11571,   631,   630
11339, 11571, 11572,   632,   631
11340, 11572, 11573,   633,   632
11341, 11573, 11574,   634,   633
11342, 11574, 11575,   635,   634
11343, 11575, 11576,   636,   635
11344, 11576, 11577,   637,   636
11345, 11577, 11578,   638,   637
11346, 11578, 11579,   639,   638
11347, 11579, 11580,   640,   639
11348, 11580, 11581,   641,   640
11349, 11581, 11582,   642,   641
11350, 11582, 11583,   643,   642
11351, 11583, 11584,   644,   643
11352, 11584, 11585,   645,   644
11353, 11585, 11586,   646,   645
11354, 11586, 11587,   647,   646
11355, 11587, 11588,   648,   647
11356, 11588, 11589,   649,   648
11357, 11589, 11590,   650,   649
11358, 11590, 11591,   651,   650
11359, 11591, 11592,   652,   651
11360, 11592, 11593,   653,   652
11361, 11593, 11594,   654,   653
11362, 11594, 11595,   655,   654
11363, 11595, 11596,   656,   655
11364, 11596, 11597,   657,   656
11365, 11597, 11598,   658,   657
11366, 11598, 11599,   659,   658
11367, 11599, 11600,   660,   659
11368, 11600,   820,    14,   660
*Nset, nset=_PickedSet3, internal, generate
     1,  11600,      1
*Elset, elset=_PickedSet3, internal, generate
     1,  11368,      1
** Section: Solid
*Solid Section, elset=_PickedSet3, material=RockMaterial
,
*End Part
**  
**
** ASSEMBLY
**
*Assembly, name=Assembly
**  
*Instance, name=ROCK-1, part=Rock
*End Instance
**  
*Nset, nset=Bottom, instance=ROCK-1
  11,  14,  15, 765, 766, 767, 768, 769, 770, 771, 772, 773, 774, 775, 776, 777
 778, 779, 780, 781, 782, 783, 784, 785, 786, 787, 788, 789, 790, 791, 792, 793
 794, 795, 796, 797, 798, 799, 800, 801, 802, 803, 804, 805, 806, 807, 808, 809
 810, 811, 812, 813, 814, 815, 816, 817, 818, 819, 820
*Elset, elset=Bottom, instance=ROCK-1
  8527,  8576,  8625,  8674,  8723,  8772,  8821,  8870,  8919,  8968,  9017,  9066,  9115,  9164,  9213,  9262
  9311,  9360,  9409,  9458,  9507,  9556,  9605,  9654,  9703,  9752,  9801,  9850,  9899,  9996, 10045, 10094
 10143, 10192, 10241, 10290, 10339, 10388, 10437, 10486, 10535, 10584, 10633, 10682, 10731, 10780, 10829, 10878
 10927, 10976, 11025, 11074, 11123, 11172, 11221, 11270, 11319, 11368
*Nset, nset=Pin, instance=ROCK-1
 15,
*Elset, elset=_Sides_S4, internal, instance=ROCK-1
 2843, 2892, 2941, 2990, 3039, 3088, 3137, 3186, 3235, 3284, 3333, 3382, 3431, 3480, 3529, 3578
 3627, 3676, 3725, 3774, 3823, 3872, 3921, 3970, 4019, 4068, 4117, 4166, 4215, 7106, 7155, 7204
 7253, 7302, 7351, 7400, 7449, 7498, 7547, 7596, 7645, 7694, 7743, 7792, 7841, 7890, 7939, 7988
 8037, 8086, 8135, 8184, 8233, 8282, 8331, 8380, 8429, 8478
*Elset, elset=_Sides_S2, internal, instance=ROCK-1, generate
 4312,  7105,    49
*Surface, type=ELEMENT, name=Sides
_Sides_S4, S4
_Sides_S2, S2
*Elset, elset=_Top_S2, internal, instance=ROCK-1, generate
   49,  1421,    49
*Elset, elset=_Top_S4, internal, instance=ROCK-1, generate
 1422,  2794,    49
*Surface, type=ELEMENT, name=Top
_Top_S2, S2
_Top_S4, S4
*End Assembly
** 
** MATERIALS
** 
*Material, name=RockMaterial
*Elastic
 1.333, 0.3333
** 
** BOUNDARY CONDITIONS
** 
** Name: BottomUy Type: Displacement/Rotation
*Boundary
Bottom, 2, 2
** Name: PinUx Type: Displacement/Rotation
*Boundary
Pin, 1, 1
** ----------------------------------------------------------------
** 
** STEP: UnitL
** 
*Step, name=UnitL, nlgeom=NO
*Static
1., 1., 1e-05, 1.
** 
** LOADS
** 
** Name: PL   Type: Pressure
*Dsload
Sides, P, 1.
** 
** OUTPUT REQUESTS
** 
*Restart, write, frequency=0
** 
** FIELD OUTPUT: F-Output-1
** 
*Output, field, frequency=99999
*Node Output
COORD, RF, U
*Element Output, directions=YES
COORD, IVOL, S
** 
** HISTORY OUTPUT: H-Output-1
** 
*Output, history, variable=PRESELECT
*End Step
** ----------------------------------------------------------------
** 
** STEP: UnitT
** 
*Step, name=UnitT, nlgeom=NO
*Static
1., 1., 1e-05, 1.
** 
** LOADS
** 
** Name: PL   Type: Pressure
*Dsload
Sides, P, 0.
** Name: PT   Type: Pressure
*Dsload
Top, P, 1.
** 
** OUTPUT REQUESTS
** 
*Restart, write, frequency=0
** 
** FIELD OUTPUT: F-Output-1
** 
*Output, field, frequency=99999
*Node Output
COORD, RF, U
*Element Output, directions=YES
COORD, IVOL, S
** 
** HISTORY OUTPUT: H-Output-1
** 
*Output, history, variable=PRESELECT
*End Step
** ----------------------------------------------------------------
** 
** STEP: Check
** 
*Step, name=Check, nlgeom=NO
*Static
1., 1., 1e-05, 1.
** 
** LOADS
** 
** Name: PL   Type: Pressure
*Dsload
Sides, P, 1.
** Name: PT   Type: Pressure
*Dsload
Top, P, 5.
** 
** OUTPUT REQUESTS
** 
*Restart, write, frequency=0
** 
** FIELD OUTPUT: F-Output-1
** 
*Output, field, frequency=99999
*Node Output
COORD, RF, U
*Element Output, directions=YES
COORD, IVOL, S
** 
** HISTORY OUTPUT: H-Output-1
** 
*Output, history, variable=PRESELECT
*End Step
