*Heading
 TUST revision 3: linear plane strain, verified source geometry
** Job name: tr3_tunnel_l1p0 Model name: tr3_tunnel_l1p0
** Generated by: Abaqus/CAE 2025
*Preprint, echo=NO, model=NO, history=NO, contact=NO
**
** PARTS
**
*Part, name=Rock
*Node
      1,   20.8083134,   10.5617867
      2,    20.927412,   11.5622864
      3,   20.4789429,   13.5259066
      4,     19.54562,    15.318264
      5,   17.6339436,   17.6693287
      6,   15.3042269,   19.5546322
      7,   13.5310774,   20.4769001
      8,   11.5900726,   20.9264641
      9,    10.599124,   20.8193092
     10,   9.73255348,   20.3382111
     11,   9.20668983,   19.4859543
     12,    9.0713644,   18.4877415
     13,   9.50282574,   16.5206985
     14,   10.4273996,   14.7238836
     15,   12.3306713,   12.3660574
     16,    14.681736,     10.45438
     17,   16.4740944,   9.52105713
     18,   18.4377136,   9.07258701
     19,   19.4382133,   9.19168663
     20,   20.3033009,   9.69669914
     21,  0.659952819,  -7.49485064
     22,           0.,         -7.5
     23, -0.659952819,  -7.49485064
     24,  -1.20684111,  -7.46495581
     25,  -1.75372946,  -7.42562056
     26,  -2.30061793,  -7.37920475
     27,  -2.84750628,  -7.31233454
     28,   -3.3943944,  -7.23523712
     29,  -3.94128275,  -7.14161921
     30,   -4.4881711,  -7.03384018
     31,  -5.03505945,  -6.91347408
     32,   -5.5819478,  -6.77658701
     33,  -6.12883615,  -6.62711287
     34,  -6.67572451,  -6.46111774
     35,  -7.22261286,    -6.275455
     36,  -7.76950121,  -5.95919895
     37,  -8.27732658,  -5.40352154
     38,  -8.62889767,  -4.70230341
     39,  -8.81119347,  -3.99227428
     40,  -8.93098831,  -3.29725742
     41,   -8.9804678,   -2.6243484
     42,          -9.,   -2.0089469
     43,  -8.96093655,  -1.20768607
     44,   -8.8762989, -0.460117847
     45,  -8.73306656,  0.283320129
     46,  -8.52472782,   1.04144335
     47,  -8.26430511,   1.74916959
     48,  -7.93877602,   2.45227098
     49,  -7.53512049,    3.1462853
     50,  -7.04031658,   3.82822132
     51,  -6.49342823,   4.47017384
     52,  -5.94653988,   5.02244234
     53,  -5.39965153,   5.50154686
     54,  -4.85276365,   5.91614103
     55,   -4.3058753,   6.27409267
     56,  -3.75898671,   6.57854843
     57,  -3.21209836,    6.8358016
     58,  -2.66521001,   7.04899931
     59,  -2.11832166,    7.2173543
     60,  -1.57143342,   7.34952116
     61,  -1.02454507,   7.43841887
     62, -0.477656692,   7.49034166
     63,           0.,          7.5
     64,  0.477656692,   7.49034166
     65,   1.02454507,   7.43841887
     66,   1.57143342,   7.34952116
     67,   2.11832166,    7.2173543
     68,   2.66521001,   7.04899931
     69,   3.21209836,    6.8358016
     70,   3.75898671,   6.57854843
     71,    4.3058753,   6.27409267
     72,   4.85276365,   5.91614103
     73,   5.39965153,   5.50154686
     74,   5.94653988,   5.02244234
     75,   6.49342823,   4.47017384
     76,   7.04031658,   3.82822132
     77,   7.53512049,    3.1462853
     78,   7.93877602,   2.45227098
     79,   8.26430511,   1.74916959
     80,   8.52472782,   1.04144335
     81,   8.73306656,  0.283320129
     82,    8.8762989, -0.460117847
     83,   8.96093655,  -1.20768607
     84,           9.,   -2.0089469
     85,    8.9804678,   -2.6243484
     86,   8.93098831,  -3.29725742
     87,   8.81119347,  -3.99227428
     88,   8.62889767,  -4.70230341
     89,   8.27732658,  -5.40352154
     90,   7.76950121,  -5.95919895
     91,   7.22261286,    -6.275455
     92,   6.67572451,  -6.46111774
     93,   6.12883615,  -6.62711287
     94,    5.5819478,  -6.77658701
     95,   5.03505945,  -6.91347408
     96,    4.4881711,  -7.03384018
     97,   3.94128275,  -7.14161921
     98,    3.3943944,  -7.23523712
     99,   2.84750628,  -7.31233454
    100,   2.30061793,  -7.37920475
    101,   1.75372946,  -7.42562056
    102,   1.20684111,  -7.46495581
    103,   35.5769234,        -37.5
    104,   33.6538467,        -37.5
    105,   31.7307701,        -37.5
    106,   28.8461533,        -37.5
    107,   26.9230766,        -37.5
    108,          25.,        -37.5
    109,   23.0769234,        -37.5
    110,   21.1538467,        -37.5
    111,   19.2307701,        -37.5
    112,   16.3461533,        -37.5
    113,   14.4230766,        -37.5
    114,         12.5,        -37.5
    115,   10.5769234,        -37.5
    116,   8.65384579,        -37.5
    117,   6.73076916,        -37.5
    118,   3.84615374,        -37.5
    119,   1.92307687,        -37.5
    120,         37.5,        -37.5
    121,           0.,        -37.5
    122,         37.5,         35.5
    123,         37.5,         33.5
    124,         37.5,         31.5
    125,         37.5,         29.5
    126,         37.5,         27.5
    127,         37.5,         25.5
    128,         37.5,         22.5
    129,         37.5,         20.5
    130,         37.5,         18.5
    131,         37.5,         16.5
    132,         37.5,         14.5
    133,         37.5,         12.5
    134,         37.5,         10.5
    135,         37.5,          8.5
    136,         37.5,          6.5
    137,         37.5,          4.5
    138,         37.5,          2.5
    139,         37.5,          0.5
    140,         37.5,         -2.5
    141,         37.5,         -4.5
    142,         37.5,         -6.5
    143,         37.5,         -8.5
    144,         37.5,        -10.5
    145,         37.5,        -12.5
    146,         37.5,        -14.5
    147,         37.5,        -16.5
    148,         37.5,        -18.5
    149,         37.5,        -20.5
    150,         37.5,        -22.5
    151,         37.5,        -25.5
    152,         37.5,        -27.5
    153,         37.5,        -29.5
    154,         37.5,        -31.5
    155,         37.5,        -33.5
    156,         37.5,        -35.5
    157,         37.5,         37.5
    158,        -35.5,         37.5
    159,        -33.5,         37.5
    160,        -31.5,         37.5
    161,        -29.5,         37.5
    162,        -27.5,         37.5
    163,        -25.5,         37.5
    164,        -22.5,         37.5
    165,        -20.5,         37.5
    166,        -18.5,         37.5
    167,        -16.5,         37.5
    168,        -14.5,         37.5
    169,        -12.5,         37.5
    170,        -10.5,         37.5
    171,         -8.5,         37.5
    172,         -6.5,         37.5
    173,         -4.5,         37.5
    174,         -2.5,         37.5
    175,         -0.5,         37.5
    176,          2.5,         37.5
    177,          4.5,         37.5
    178,          6.5,         37.5
    179,          8.5,         37.5
    180,         10.5,         37.5
    181,         12.5,         37.5
    182,         14.5,         37.5
    183,         16.5,         37.5
    184,         18.5,         37.5
    185,         20.5,         37.5
    186,         22.5,         37.5
    187,         25.5,         37.5
    188,         27.5,         37.5
    189,         29.5,         37.5
    190,         31.5,         37.5
    191,         33.5,         37.5
    192,         35.5,         37.5
    193,        -37.5,         37.5
    194,        -37.5,        -35.5
    195,        -37.5,        -33.5
    196,        -37.5,        -31.5
    197,        -37.5,        -29.5
    198,        -37.5,        -27.5
    199,        -37.5,        -25.5
    200,        -37.5,        -22.5
    201,        -37.5,        -20.5
    202,        -37.5,        -18.5
    203,        -37.5,        -16.5
    204,        -37.5,        -14.5
    205,        -37.5,        -12.5
    206,        -37.5,        -10.5
    207,        -37.5,         -8.5
    208,        -37.5,         -6.5
    209,        -37.5,         -4.5
    210,        -37.5,         -2.5
    211,        -37.5,         -0.5
    212,        -37.5,          2.5
    213,        -37.5,          4.5
    214,        -37.5,          6.5
    215,        -37.5,          8.5
    216,        -37.5,         10.5
    217,        -37.5,         12.5
    218,        -37.5,         14.5
    219,        -37.5,         16.5
    220,        -37.5,         18.5
    221,        -37.5,         20.5
    222,        -37.5,         22.5
    223,        -37.5,         25.5
    224,        -37.5,         27.5
    225,        -37.5,         29.5
    226,        -37.5,         31.5
    227,        -37.5,         33.5
    228,        -37.5,         35.5
    229,        -37.5,        -37.5
    230,  -1.97368419,        -37.5
    231,  -3.94736838,        -37.5
    232,  -5.92105246,        -37.5
    233,  -7.89473677,        -37.5
    234,  -10.8552628,        -37.5
    235,  -12.8289471,        -37.5
    236,  -14.8026314,        -37.5
    237,  -16.7763157,        -37.5
    238,       -18.75,        -37.5
    239,  -20.7236843,        -37.5
    240,  -22.6973686,        -37.5
    241,  -24.6710529,        -37.5
    242,  -26.6447372,        -37.5
    243,  -29.6052628,        -37.5
    244,  -31.5789471,        -37.5
    245,  -33.5526314,        -37.5
    246,  -35.5263176,        -37.5
    247,   18.5267735,   7.92323923
    248,   35.3997269,   10.4854164
    249,   32.9368019,   10.4962549
    250,   31.2001476,   10.4875174
    251,    29.178297,   10.6383066
    252,   27.1726036,   10.5305252
    253,   25.0547256,    10.046011
    254,   22.9887238,   10.6750593
    255,  -35.7375412,   8.75536251
    256,  -33.1221008,   7.61456633
    257,  -31.3052959,   8.12977695
    258,  -28.7797508,   8.44415188
    259,  -26.7631989,   8.33743572
    260,  -24.8340549,   8.11927032
    261,  -22.8377934,   7.99133825
    262,  -20.6444168,   8.54744244
    263,  -18.5739365,   8.49597836
    264,  -16.3685207,   8.02734566
    265,   -14.744216,   8.20292759
    266,  -13.0167503,   8.23425198
    267,  -10.5129204,   8.37011909
    268,  -8.25346088,   8.74957848
    269,  -6.14644146,   8.13769245
    270,  -4.13290453,    8.3318367
    271,  -1.65033281,    8.5573349
    272,  0.193247199,   8.49092388
    273,   1.84981155,   8.27841854
    274,   4.39197016,   8.21106243
    275,   8.05167198,   8.68567657
    276,   10.5909719,   8.89949226
    277,   12.3828754,   8.10635948
    278,   14.3424892,   8.15547848
    279,   16.0895405,   8.31899452
    280,   21.0830784,   8.07322693
    281,   23.1142464,   8.51575279
    282,   24.9108753,   8.02993774
    283,   26.8617744,   7.65821457
    284,   29.0104465,   8.75847721
    285,   31.0718403,   7.95921803
    286,   33.4486275,   8.37453365
    287,   35.4391365,   8.49995613
    288,   12.3274231,   10.5610199
    289,   9.93968964,    10.591321
    290,   7.88758755,   10.3709307
    291,   6.79419041,   10.3075943
    292,   1.66093266,   9.91121483
    293, -0.129858762,   10.9102821
    294,  -2.11271548,   10.8191967
    295,  -4.18868876,   10.7378817
    296,  -6.28173161,   10.7393513
    297,  -8.28324509,   10.4729128
    298,  -10.7951336,    10.725111
    299,  -13.1009121,   9.75481606
    300,  -14.7081699,   10.4624615
    301,  -16.5190144,   10.2522831
    302,  -18.8095264,   10.5128889
    303,  -20.9549274,   10.4450378
    304,  -23.1075306,   10.8780317
    305,  -24.8541584,     10.29424
    306,  -27.2225304,   10.0808897
    307,  -29.7332592,   10.6034985
    308,  -31.4764786,   10.6324949
    309,  -33.7612877,   10.7293034
    310,  -35.6666451,   10.6439943
    311,   9.75614834,    12.499939
    312,   7.97794485,   12.2572422
    313,   6.33657598,   12.7124453
    314,   4.49515104,    12.263381
    315,   2.18664241,   12.9469337
    316, 0.0732963234,   13.2717028
    317,  -1.63051558,   12.6131897
    318,  -4.12529993,     12.64886
    319,  -6.19226885,    12.285614
    320,  -8.59452438,   12.6834049
    321,  -10.7189579,   13.1396666
    322,  -12.4676485,   12.6250591
    323,  -14.5209198,   13.0599384
    324,   -16.689436,   13.1396646
    325,  -18.3083477,   12.2435255
    326,  -21.1017342,   12.6206598
    327,  -22.9064655,   12.9811544
    328,  -25.6516037,   12.6528893
    329,  -26.9896412,   12.5917997
    330,  -29.5329418,   12.8143463
    331,  -31.6635609,   12.6184807
    332,  -33.5929985,   12.5720215
    333,  -35.5609398,   12.5637035
    334,   8.31889725,    14.702095
    335,   6.27160883,   14.4978199
    336,   4.53261423,   14.8508291
    337,   2.38940763,   14.5817327
    338, 0.00175019528,   15.1500597
    339,  -2.37822247,   14.9828053
    340,  -4.25562763,   14.6108971
    341,  -6.07642984,   14.3338995
    342,  -8.45097351,   14.6858187
    343,  -10.3841257,   15.1453953
    344,  -12.8677845,   14.1567488
    345,  -14.7382698,   14.6659222
    346,   -16.560051,   14.2380857
    347,  -18.7211514,   14.6380844
    348,   -23.816843,   14.3651886
    349,  -24.4830151,   14.3136225
    350,  -29.7473316,   14.2659264
    351,   -31.500988,   14.4803743
    352,  -33.4484329,   14.5284996
    353,   -35.455925,   14.5581141
    354,  -35.3927193,   16.6531982
    355,  -33.0121231,   17.0414295
    356,  -31.1804314,   16.5149498
    357,  -29.1998081,   16.0193157
    358,  -26.9626331,   16.2358494
    359,  -24.9188251,   16.5458641
    360,   -22.297121,   16.7330475
    361,    -21.06357,   16.7795258
    362,  -18.9389343,   17.0505123
    363,   -17.246048,   16.7804375
    364,  -15.0909815,   17.0244846
    365,  -12.5147161,   16.4340096
    366,  -9.75004101,   17.4260082
    367,  -8.29551983,   16.2933292
    368,  -5.97492409,   16.8057137
    369,  -3.96007752,   16.0708542
    370,  -2.19174838,   16.3204727
    371,  0.359158963,   17.0341072
    372,    1.3774488,   16.3143425
    373,   3.66542196,   15.8290491
    374,   6.86348915,   16.2807617
    375,   8.15345573,   16.5592499
    376,   8.07883263,   18.7610912
    377,   5.82725382,   18.5968742
    378,   4.18346167,    19.211956
    379,   1.38688076,   19.0974426
    380, -0.421405315,   18.8912182
    381,  -2.20508218,   19.1811104
    382,   -4.3922019,   19.1039543
    383,  -8.53538704,   18.6476879
    384,  -10.4760132,   18.7470379
    385,  -12.6549892,   18.3013897
    386,  -14.3683958,   18.4704857
    387,  -16.8612461,   18.8061085
    388,  -19.0375462,   18.5400085
    389,  -20.9038162,   18.6240864
    390,  -22.3292332,    18.962801
    391,  -24.9204884,   18.3676777
    392,  -29.4229069,   18.8970776
    393,  -31.1378193,   18.6486874
    394,  -32.6510582,   17.9464149
    395,  -35.5674706,   18.7035255
    396,   7.49977064,   20.8430939
    397,   5.59510851,   21.1205444
    398,   4.06538534,   21.3241177
    399,   1.89137053,   20.7966442
    400, -0.121052444,   20.9196873
    401,  -1.86205924,   20.7344437
    402,  -4.18138695,   21.3996849
    403,  -6.25958776,   20.2542496
    404,  -8.66911697,   20.3954716
    405,  -10.3361206,   20.5410233
    406,  -12.2101526,   20.1645679
    407,  -14.5454912,    21.156599
    408,  -16.2627163,    20.951292
    409,  -19.0557384,   21.2607956
    410,  -20.9370575,   21.0394344
    411,  -22.8415031,   20.6186981
    412,   -25.219511,   21.1180172
    413,  -27.0466442,   20.4567738
    414,  -28.3265858,   20.0646477
    415,  -31.4048214,   20.6766949
    416,  -33.5552406,   20.6874199
    417,  -35.5559158,   20.6336918
    418,   34.9508858,   23.1556759
    419,   33.2976837,   22.9492874
    420,   31.0586586,   22.5672359
    421,   29.1372795,   22.8739395
    422,   27.1048584,   23.3363094
    423,    24.946064,    23.003336
    424,   22.7552547,   22.8141403
    425,   20.6241188,   23.1119881
    426,   18.5211945,   23.1485844
    427,   16.5068512,   22.8568039
    428,   14.7733202,   23.2354717
    429,    12.773407,   23.2498341
    430,   10.7931099,   23.1535168
    431,   8.11820316,   23.1092815
    432,   6.06116629,   22.8192768
    433,   4.03760481,   22.8807659
    434,   1.95834458,   22.8776455
    435, -0.0963732377,   23.3258724
    436,  -2.68108845,    23.215517
    437,   -4.5148735,   23.0583572
    438,  -6.15273762,   23.1214924
    439,  -8.15883827,   22.7474422
    440,  -10.7274799,   22.9966373
    441,  -12.6738424,    23.010334
    442,  -14.9618044,   23.1778221
    443,   -16.822752,   23.0896492
    444,  -19.1160965,   23.2456627
    445,  -20.9194202,   23.4118805
    446,  -22.9746304,   22.3285713
    447,  -26.9888802,   23.0803432
    448,  -29.3698959,   23.0424232
    449,  -31.5427818,   22.7446289
    450,  -33.6076431,   22.6560478
    451,  -35.5765457,   22.5823402
    452,   14.9390726,   20.7734261
    453,   17.2853127,    20.431551
    454,   18.6331024,   20.9398384
    455,   20.6095123,   21.4311008
    456,   22.8662033,   20.6699371
    457,   24.8662357,   21.0456715
    458,   26.8885288,   20.6476212
    459,   28.9553547,   20.6823845
    460,   30.8907032,   20.5884228
    461,   32.7831917,   20.6807613
    462,   35.4801216,   21.0961876
    463,   19.0073204,   18.8789482
    464,   20.4170017,   18.7229538
    465,   23.1612492,   18.6198025
    466,   24.9989662,   19.5697861
    467,   26.9614353,    18.799881
    468,   28.7535534,   19.2876396
    469,   30.8585415,   18.6151657
    470,   33.7592621,   18.9251575
    471,   35.6083984,    19.163168
    472,   20.9002361,   16.4541245
    473,   23.1453247,   17.1939125
    474,   24.8097553,   16.4243641
    475,   27.0076408,   16.7939301
    476,   29.2576694,   16.3779545
    477,   31.2913876,   16.1606655
    478,   33.5503998,   17.0536861
    479,   35.6097221,   17.2667141
    480,   21.1713276,   14.2942905
    481,     23.04986,   14.6541166
    482,   24.9871769,   14.2227793
    483,     27.04352,   14.9274502
    484,   29.5401096,   14.6057835
    485,   31.5651608,   14.5483122
    486,    33.818531,   14.3415546
    487,   35.6039619,    14.403554
    488,   23.4032745,   12.3359327
    489,   24.6266537,   12.1914673
    490,   27.2264614,   12.3220835
    491,   29.1345997,   12.5396652
    492,     30.63381,   13.1088924
    493,   33.5583229,   12.6266079
    494,   35.5099907,   12.4535532
    495, 0.0590935722,   -8.5626297
    496,   35.6223907,  -5.78028107
    497,   33.8506737,  -6.00680161
    498,   31.2669601,  -5.80789995
    499,   29.5015564,  -6.48184824
    500,   27.2042503,  -6.47064018
    501,   24.7589836,  -6.05372429
    502,   22.6604233,  -5.69902563
    503,   20.4200878,  -5.61327314
    504,    18.437088,  -6.47088671
    505,   16.8184204,   -6.3511219
    506,   15.0951223,   -6.1986227
    507,   12.4788904,  -6.28232622
    508,   10.7740107,  -6.34472561
    509,   8.24510193,  -6.63371325
    510,   6.42831802,  -8.29375172
    511,  -35.4429779,  -8.47291565
    512,  -33.4607887,  -8.38817215
    513,  -30.9461117,  -8.33307171
    514,  -29.1196728,   -8.1905365
    515,  -27.1958714,  -8.33595085
    516,   -24.488142,  -8.43152523
    517,  -23.5434437,  -8.21784306
    518,  -20.9735298,   -8.2311182
    519,  -19.1800823,  -8.83385372
    520,  -16.7351627,  -8.10314941
    521,   -14.577878,  -8.68019772
    522,  -12.7870979,  -8.52913952
    523,  -10.4517069,  -7.96910524
    524,  -8.70272255,  -8.79707623
    525,  -6.71495819,  -8.11206818
    526,  -4.58204889,  -8.07196999
    527,  -2.33175945,  -8.45970631
    528,   1.84523106,  -8.47906303
    529,   4.12938166,  -8.21381664
    530,   8.33372498,  -8.88031197
    531,   10.5058441,  -7.89534521
    532,   12.8714466,  -8.56603813
    533,   15.1570387,  -8.36794186
    534,   16.9136925,  -8.31669521
    535,   18.9968624,  -8.55178928
    536,   20.0610104,  -8.07712746
    537,   22.8986454,  -8.34154701
    538,   25.2205181,  -7.42950201
    539,   27.1845245,  -8.38801193
    540,   28.9684906,  -8.35702133
    541,   31.3540096,   -8.5030508
    542,   33.5135193,  -7.81013203
    543,   35.6133842,   -7.6916132
    544,   -8.5949049,  -6.35332394
    545,  -10.2336111,  -6.28146076
    546,  -13.0319214,  -6.01679659
    547,  -14.6490965,  -6.17108107
    548,  -16.1907368,   -6.1463027
    549,  -18.6720238,  -5.76080894
    550,  -20.8424454,  -6.35389376
    551,  -23.1182842,  -6.65697956
    552,   -26.858942,  -6.50547504
    553,  -29.0589886,  -6.29717827
    554,  -31.2914982,  -6.05809593
    555,  -33.3749619,   -6.5545764
    556,  -35.4036522,  -6.46781445
    557,  -10.7868061,  -4.05550814
    558,  -12.9331751,  -3.97447824
    559,  -14.6223726,   -4.0160408
    560,  -16.4186668,  -4.47075748
    561,  -18.7605476,  -3.98683715
    562,  -20.8586864,  -4.00788879
    563,  -23.4612083,  -3.99766397
    564,  -26.7635536,  -4.59949732
    565,  -28.8099556,  -4.33607006
    566,  -31.3664093,   -4.3047657
    567,   -33.799572,   -4.1309514
    568,  -35.0918961,  -4.29329681
    569,  -10.3523645,  -2.31026459
    570,  -12.8417063,  -1.86720753
    571,  -14.9822464,  -2.38474751
    572,  -16.3942986,  -2.00015807
    573,  -19.0573883,  -1.85729015
    574,  -21.2987976,  -2.12421203
    575,  -22.7474594,  -1.19796717
    576,  -25.1056652,  -2.06672025
    577,  -27.2448502,  -2.17571425
    578,  -29.0060654,  -1.56090486
    579,  -31.5940876,  -1.71654224
    580,  -33.5688591,  -2.09102821
    581,  -35.3989792,  -2.23537517
    582,  -10.8247614, -0.0774900541
    583,   -12.734725, -0.316913486
    584,  -14.9639549,  -0.11900267
    585,  -19.3155327,  -0.46095705
    586,  -20.8964157, -0.166181877
    587,  -23.0436935,  0.259676456
    588,   -24.705616, -0.136988193
    589,  -26.7509575, -0.167108044
    590,  -28.8077984, -0.0475428142
    591,  -30.8678436, -0.103427209
    592,  -33.2968636, -0.221958593
    593,  -35.0457649, -0.122562215
    594,  -10.6290779,    2.2156837
    595,  -12.8868361,   2.32082939
    596,  -14.6201429,   1.93631887
    597,  -16.9637318,   2.24393725
    598,  -18.7836075,   2.11474776
    599,  -20.5848255,   1.89956737
    600,  -23.2037296,   2.20494533
    601,  -25.2055054,   2.23397756
    602,  -27.2956333,   2.37613463
    603,  -29.4974632,   2.32390046
    604,  -30.7081852,   1.78058398
    605,  -35.3942261,   1.85903525
    606,  -8.56756115,   4.44931555
    607,  -10.4513597,   4.17006159
    608,   -12.170598,    4.3630619
    609,  -15.2061777,    4.5080514
    610,  -16.7500629,   4.27083063
    611,  -18.4045677,   4.12307215
    612,  -21.2317467,   4.19285822
    613,  -23.1117058,   4.50850534
    614,  -24.8169727,   3.25660467
    615,  -27.2271748,   4.50919819
    616,  -28.8744106,   4.00434303
    617,   -31.402092,   3.34264016
    618,  -33.2971802,   3.95201755
    619,  -35.0586319,     4.016469
    620,  -6.12961435,   6.56618118
    621,  -8.40530682,   6.64923906
    622,  -10.5508223,   6.19223642
    623,  -13.0699997,   6.58328485
    624,  -14.6920967,    6.2510705
    625,  -16.3998699,   6.30947638
    626,  -18.3580189,   6.51921225
    627,    -20.36022,   5.82056475
    628,   -23.197237,   6.03109407
    629,  -24.4751968,   5.93275261
    630,  -26.3763676,   6.01803064
    631,  -29.1804428,   6.26367998
    632,  -31.1289406,   6.15999651
    633,  -32.2985764,   5.96414804
    634,  -35.5403061,   5.94030094
    635,   6.26068211,   6.43791056
    636,    8.3261137,   6.58945942
    637,   10.7777243,    6.5843544
    638,   12.9466429,   6.12863827
    639,   14.0374823,   6.03859138
    640,   16.8306561,   6.02022982
    641,   18.9206409,   6.37189293
    642,   21.2825089,   5.85080242
    643,   23.1884937,   6.66713572
    644,   25.0446739,   6.09729385
    645,    27.105257,   6.08158541
    646,   28.9943333,   6.21408892
    647,   30.8460464,   6.42409945
    648,   33.5785027,   6.60019445
    649,   35.4415741,   6.52257633
    650,   8.59102154,   4.32992411
    651,   10.5212593,   4.51456928
    652,   12.9833126,   4.00403547
    653,   14.5725861,   3.86743927
    654,   16.3860855,   3.90593839
    655,   19.4121189,   4.26973248
    656,   21.2921886,   3.83372021
    657,   23.0270996,   4.68926954
    658,    25.638216,   4.31424093
    659,   27.3508968,   4.04608297
    660,   31.2903042,   4.30204439
    661,    33.423996,   4.32124901
    662,   35.0302582,   4.33488798
    663,   10.6003666,   2.24170446
    664,   12.6251707,   2.43977594
    665,   16.4597797,     1.867136
    666,   18.9924068,   1.53177953
    667,   20.9300137,   1.94983852
    668,   23.1139145,   2.57670403
    669,   24.7154865,   2.03053784
    670,    26.989603,   2.42298031
    671,   29.2773247,   2.38009334
    672,   31.2973747,   2.08567405
    673,   32.6790886,   2.06732535
    674,   35.4737511,   2.26285315
    675,   10.2785091, -0.0954467282
    676,    12.306385,  0.314427495
    677,   14.1239185,  0.407973051
    678,   16.2083111, 0.0535180233
    679,   18.9982204,  0.128720701
    680,   20.6083202, 0.0535458475
    681,   23.0035572, -0.0659423545
    682,   24.8077374,  0.564205945
    683,   27.3845596,   0.59830761
    684,   28.9984608,  0.112302557
    685,   30.6644363,  0.290754914
    686,   33.4884338,  0.616270781
    687,   35.4413071,  0.330893189
    688,   10.8342323,  -2.34401321
    689,   12.3003674,  -2.27056766
    690,   14.6966906,  -1.92042994
    691,   16.7341251,  -1.71722412
    692,   18.6064224,  -1.79062545
    693,   20.3890743,  -1.91157508
    694,   22.8715191,  -1.54993415
    695,   25.6433372,  -1.38884997
    696,   26.8398323,  -2.23709965
    697,   28.8056393,  -1.83962083
    698,   30.8624249,  -1.48479724
    699,   33.3824997,  -2.24681997
    700,   35.0049515,   -1.8619647
    701,   10.1747694,  -4.02028418
    702,   12.1924105,  -4.01110315
    703,   14.6711874,  -4.24891472
    704,   17.2529259,  -4.42568827
    705,   18.5863342,  -5.14608908
    706,   20.3496723,  -4.19813585
    707,   22.8877621,   -3.8529191
    708,   24.7734756,  -3.96934366
    709,   27.1019325,  -4.62044621
    710,   29.2506084,  -3.86380959
    711,   31.5291309,  -4.62073421
    712,    35.508667,  -3.88431263
    713,   35.5889282,   -35.571785
    714,   33.6149216,  -34.7304611
    715,   31.6781597,  -35.6748734
    716,   28.8495579,  -34.7851677
    717,   26.9384041,  -35.5944786
    718,   25.0722008,  -35.4834824
    719,   23.1402187,  -35.4423943
    720,   20.5104923,  -34.6042137
    721,   18.4299526,  -35.3112907
    722,   16.7891331,  -34.8336906
    723,   14.3216314,  -35.6851883
    724,   12.5236435,  -35.5362549
    725,   10.7877321,  -35.2257271
    726,   8.32512283,  -34.8478203
    727,   6.60730791,  -35.7423515
    728,   3.85167646,  -34.7936516
    729,    1.9739598,  -35.6329536
    730, 0.0807668492,  -35.5657005
    731,  -1.90076971,  -35.3990479
    732,  -3.91983557,   -35.561882
    733,  -6.59878397,  -35.5300446
    734,  -8.26845455,  -35.0774689
    735,  -10.3188963,  -35.3243713
    736,  -12.0771008,  -35.6379395
    737,  -14.8942661,  -35.6251373
    738,  -16.9040337,  -35.4124947
    739,  -18.9928246,  -35.4284782
    740,  -20.9657249,   -35.597168
    741,  -22.8689232,  -35.7089462
    742,  -24.7478981,  -35.7331161
    743,  -26.6010418,  -34.9210052
    744,  -29.5203476,  -35.5212936
    745,  -31.5307293,  -35.4401245
    746,  -33.5135612,  -35.4770813
    747,  -35.4690056,  -35.4576836
    748,   35.5766678,  -33.7079277
    749,   33.3276024,  -32.2254448
    750,   31.6286373,   -33.912262
    751,   29.8510456,  -33.1074905
    752,   27.1650333,  -33.5415115
    753,   25.2472572,  -33.0594254
    754,   22.4038429,  -33.4083443
    755,   21.0641747,  -33.1654396
    756,   18.4391708,  -33.5310745
    757,   16.7012196,  -32.9772835
    758,   15.1226864,  -33.9789009
    759,   12.6800098,  -33.6107941
    760,   10.1199865,   -33.170639
    761,   8.31945324,  -32.9893837
    762,   6.51770639,   -33.877697
    763,   4.70282078,  -32.9062881
    764,   2.09614658,  -33.4925499
    765, -0.256905556,  -33.1132355
    766,  -2.30958414,  -33.0638123
    767,  -4.22986078,  -33.0326271
    768,   -6.1845665,  -32.4819031
    769,  -8.61800671,  -33.4136887
    770,  -10.8820686,  -33.6262054
    771,  -12.2766695,  -32.8305435
    772,   -14.420166,  -32.9273338
    773,  -16.2560387,  -33.1285553
    774,  -18.3084831,  -32.6513023
    775,  -21.1451931,  -33.6063919
    776,  -22.9606266,  -33.9639282
    777,  -24.8504753,  -33.8426476
    778,  -27.3378639,  -33.5866318
    779,  -28.9260273,  -33.6535835
    780,  -31.0152817,  -33.1591988
    781,  -33.2633934,  -33.2838326
    782,  -35.4257622,  -33.3973427
    783,   34.9987373,  -30.8462181
    784,   33.4485703,  -31.1863327
    785,   31.8148327,  -31.2566071
    786,   29.4374809,  -31.2584591
    787,   27.4164028,  -31.3189735
    788,   25.0331421,  -31.4047909
    789,   22.6727753,  -31.1383457
    790,   20.6882687,  -31.5251369
    791,   19.0109978,  -30.7853222
    792,   16.4514675,  -31.1274719
    793,    13.908411,  -30.9572697
    794,   12.0571728,  -31.5178356
    795,   10.2801218,  -31.2062874
    796,   8.38309097,  -31.0236225
    797,   6.53464699,  -31.0081005
    798,   4.74023104,  -30.9559994
    799,   2.23541331,  -31.9995289
    800,   0.44565618,  -31.5588932
    801,  -2.05052972,  -31.5334549
    802,  -4.63946438,  -31.2083721
    803,   -6.3255744,  -30.6498566
    804,  -8.06664753,  -31.4465675
    805,    -10.74751,   -31.503912
    806,  -12.3268261,  -30.7647877
    807,   -13.508091,  -31.2959061
    808,  -17.2094803,  -31.3984547
    809,  -18.6232643,   -30.943903
    810,  -20.4606533,  -31.0972748
    811,  -22.5799351,  -30.8172054
    812,  -24.7523098,  -31.2347507
    813,  -28.9421444,  -31.2298355
    814,  -30.1439877,  -31.3135262
    815,  -33.5823555,  -31.1183929
    816,  -35.4744835,  -31.3479252
    817,   35.2666245,  -28.6697063
    818,   33.2349892,   -28.786459
    819,   30.3952255,  -29.2316856
    820,   29.3367672,   -28.570816
    821,   27.0176926,  -29.5551281
    822,   24.6276512,  -29.1967106
    823,   22.8248711,  -29.4747486
    824,   19.6572323,  -28.9009991
    825,   18.1268482,  -28.7856274
    826,   14.6570959,  -28.9277115
    827,   13.3386736,  -28.6420078
    828,   10.2778149,  -28.9345913
    829,   8.35694122,   -28.889183
    830,   6.45994997,  -29.0547466
    831,   4.25966215,  -29.1351395
    832,   2.05154562,  -29.0756035
    833,  -0.27341935,  -28.4030914
    834,  -3.05287218,  -28.7101116
    835,  -4.14555025,   -29.056078
    836,  -6.07875443,  -28.7501163
    837,  -8.33409595,  -28.8770771
    838,  -10.7219372,  -29.4071884
    839,  -12.4152527,  -28.8018665
    840,  -14.2191076,   -28.858675
    841,   -16.780653,  -29.3744411
    842,  -18.6255512,  -29.3379364
    843,  -20.6290722,   -28.800333
    844,  -23.0245705,   -28.648674
    845,  -25.1107998,  -29.5773659
    846,  -27.0823517,  -29.3061295
    847,  -29.1613579,  -29.6581745
    848,  -30.5698051,  -29.2487431
    849,  -33.6077118,  -29.2155933
    850,  -35.5069008,  -29.3483257
    851,   34.9941711,  -26.4766579
    852,   33.0125847,  -27.3470879
    853,   30.9493027,  -27.0806847
    854,   29.4113598,  -27.0640869
    855,   27.4611702,  -26.9294071
    856,   24.8532562,  -27.5270195
    857,   23.1761684,  -27.6352882
    858,   20.7852707,  -27.8278465
    859,   18.2111759,  -26.6758995
    860,   16.3187027,  -26.6863194
    861,   12.6329288,  -27.5547905
    862,   10.3434973,  -26.9962006
    863,   7.69305325,  -26.4280739
    864,   6.17081261,  -26.5946655
    865,   4.04900122,  -26.2674961
    866,   2.23262167,  -27.2577477
    867,  0.192758128,  -27.2649288
    868,  -2.02910423,  -27.2505741
    869,  -3.90113783,  -27.2497292
    870,  -6.66614437,  -26.9291992
    871,  -8.69869518,  -26.5542889
    872,  -11.2267962,  -27.3992252
    873,  -12.9203014,  -27.0284328
    874,  -14.4390802,  -27.6856461
    875,  -16.2331276,  -27.1451359
    876,    -18.66469,  -27.0836086
    877,  -20.8407497,  -27.1224232
    878,  -22.6041241,  -26.6050949
    879,  -25.2627373,  -26.5692081
    880,  -27.3013344,  -27.5163784
    881,  -29.8825531,  -26.9752407
    882,  -31.6785393,  -27.4275436
    883,   -33.526001,  -27.3810272
    884,  -35.4806786,   -27.396452
    885,   35.5742416,  -24.3631325
    886,   32.4906578,  -24.7230053
    887,   30.2749634,  -24.4349098
    888,   28.6183472,  -24.8981056
    889,    26.639637,  -24.3477192
    890,   25.3809338,  -25.3389626
    891,    23.210804,   -25.725832
    892,   20.7134247,  -25.3380547
    893,   19.2586575,  -25.2771912
    894,   16.9682274,  -24.2245903
    895,   14.9541321,  -24.4971523
    896,   12.0075188,  -24.8892593
    897,   10.5842819,  -24.2688103
    898,   8.29609013,   -24.625351
    899,   6.58308172,  -24.7207432
    900,    1.8020339,  -25.1145306
    901,  0.181999311,  -25.4680805
    902,  -2.50662851,  -24.8149414
    903,  -4.28066921,  -24.5062351
    904,  -6.54619646,  -24.9268398
    905,  -9.09407234,   -25.033989
    906,  -10.5388374,  -24.8071785
    907,  -12.7123785,  -24.7878933
    908,  -14.4831133,   -24.883461
    909,  -16.9705448,  -25.1317997
    910,  -18.1981907,  -25.1276493
    911,  -21.2830296,  -25.0611687
    912,  -23.2858448,  -25.5055981
    913,  -24.8916302,  -25.1935444
    914,  -27.0296955,  -25.1689491
    915,  -28.7852612,  -24.6008625
    916,  -31.3766193,  -25.6060143
    917,  -33.3496399,  -25.6132507
    918,  -35.3450737,  -25.4264698
    919,    35.673584,  -22.4560299
    920,   33.9101219,  -22.4322205
    921,   31.6174469,  -23.2063084
    922,   29.4622421,  -22.6704731
    923,   26.7543678,  -22.5331898
    924,   24.9465179,  -22.8257484
    925,   23.7119751,  -23.0658684
    926,   20.6824818,  -23.1672993
    927,   18.6024437,  -23.5019341
    928,   16.7630405,  -23.2559299
    929,   15.0173616,  -22.8524075
    930,   12.8039188,  -23.1278286
    931,   10.5349703,  -22.6824265
    932,   7.92127085,  -22.7779732
    933,    6.1147809,  -22.8993587
    934,   4.06034231,  -22.7179947
    935,   2.46039009,  -23.4181709
    936, -0.572135568,  -22.9670238
    937,  -2.24450779,  -22.5858479
    938,   -4.6369009,  -22.9009304
    939,  -6.65192938,  -22.1413345
    940,  -8.46193218,  -23.1115227
    941,  -10.1226997,  -22.9266567
    942,  -12.5535374,  -22.3335667
    943,  -14.6117287,  -22.9181557
    944,   -16.540123,  -23.1186085
    945,  -19.0456142,  -23.0831356
    946,  -21.3658886,  -22.8532028
    947,  -22.8593483,  -22.8605556
    948,  -26.5607796,  -22.9270592
    949,  -29.0345058,  -22.6894321
    950,   -31.576643,  -23.0821228
    951,  -33.1545677,  -22.9148674
    952,  -34.8872452,  -23.1844978
    953,    35.591713,  -20.5439835
    954,   33.6657372,   -20.619585
    955,   31.4933167,  -20.8519707
    956,   29.1756325,  -20.9204273
    957,   27.1704216,  -21.0109863
    958,   25.1602726,  -20.9431763
    959,   23.7765865,  -20.8751736
    960,   21.1313076,   -20.880312
    961,   18.5313091,  -20.6216679
    962,   16.7067699,  -20.6861534
    963,   15.0145159,  -21.2301807
    964,   13.1157846,  -21.5432587
    965,   10.2694273,  -20.8027039
    966,   8.93986225,  -20.7445755
    967,   5.88854933,  -21.0683346
    968,   4.07091045,  -20.7865982
    969,   1.90124488,  -21.0717735
    970, -0.0115605006,  -20.8829002
    971,  -2.02230859,  -20.6686668
    972,  -4.47853518,  -20.9680862
    973,   -5.6393218,  -20.9783306
    974,  -9.77657318,  -21.2091007
    975,  -14.0989351,   -20.773222
    976,  -16.5856152,  -21.1266499
    977,  -18.8974113,  -20.7079964
    978,  -20.9055939,  -21.0398445
    979,   -22.713459,  -20.9724331
    980,  -24.6209679,  -21.2510681
    981,  -26.7761116,  -21.0141354
    982,   -29.357233,  -21.0750885
    983,  -31.3617744,  -20.6471119
    984,  -32.9297485,   -20.911272
    985,  -35.4490738,  -21.0951443
    986,   35.5134239,  -18.5739174
    987,   33.5288963,  -18.6491604
    988,   31.5469322,  -18.7105064
    989,   29.0543633,  -18.4445992
    990,   27.4788017,  -18.7237015
    991,   25.2587681,   -18.129858
    992,   22.9574242,  -18.6698971
    993,   21.3507099,   -18.487009
    994,   18.2135544,  -19.0282974
    995,   16.3221626,  -18.8652382
    996,   14.4759779,  -18.7215424
    997,   12.5864115,  -19.2625103
    998,   10.8525162,   -18.887682
    999,   8.19637012,  -18.8284836
   1000,   6.02807999,   -18.676384
   1001,   4.01018476,  -18.3453045
   1002,   2.77973437,  -19.1273613
   1003,  0.307778239,  -18.8464413
   1004,  -2.20334363,  -18.5543232
   1005,  -3.68996906,  -18.9636211
   1006,  -6.15407372,  -18.8340683
   1007,  -8.44455433,  -18.8085728
   1008,     -10.2079,  -18.6436863
   1009,  -12.4078207,  -18.7124043
   1010,  -14.6763382,  -18.5765228
   1011,  -16.7816391,  -18.3813496
   1012,  -18.5083294,  -19.1702824
   1013,  -20.4727039,  -18.7425003
   1014,  -22.9823666,  -19.0791016
   1015,  -25.2803955,  -18.9624634
   1016,  -26.8596458,  -18.8143921
   1017,  -29.2057571,   -18.671011
   1018,  -31.0721283,  -18.8161335
   1019,  -33.7712135,  -18.8642979
   1020,  -35.6116791,  -19.1715298
   1021,   35.4859047,   -16.559351
   1022,   33.4687843,  -16.6242065
   1023,   31.3628273,  -16.7448273
   1024,   29.0502548,  -16.6041317
   1025,   27.3838215,  -16.2101974
   1026,   24.9647446,  -16.5807495
   1027,   22.3859901,  -16.5783176
   1028,   21.2436562,  -16.3094349
   1029,   18.9003963,  -17.3237381
   1030,   17.4010868,  -16.6446266
   1031,   14.6847258,   -17.106699
   1032,   12.8770323,  -16.6213322
   1033,   10.6100101,  -16.4905682
   1034,   8.69820499,  -16.4614677
   1035,   5.97159767,  -16.5839462
   1036,   4.09947538,    -16.99753
   1037,    2.2586832,  -16.5055733
   1038,  0.136010244,  -16.8859463
   1039,  -1.85871303,  -17.0111332
   1040,  -3.93011403,  -16.5505943
   1041,  -5.85668802,  -17.2491207
   1042,  -8.41256905,  -16.8957291
   1043,  -9.99470711,  -16.8254547
   1044,  -12.8042221,   -16.932745
   1045,  -15.0159321,  -16.7217102
   1046,  -16.2644291,  -16.7408333
   1047,  -18.4867897,  -16.4650784
   1048,  -21.1034546,  -16.8211823
   1049,   -22.893362,  -16.1611118
   1050,  -25.0282726,  -16.3339748
   1051,  -27.0811443,  -16.4104595
   1052,  -31.6601543,  -16.9247169
   1053,  -33.7714424,  -17.0907478
   1054,  -35.6552963,  -17.2779408
   1055,   35.4877701,  -14.5370703
   1056,   33.4158211,  -14.5877523
   1057,   31.3033924,  -14.7667904
   1058,   28.5201416,  -15.0611238
   1059,    26.862711,  -14.2526007
   1060,   25.2362537,  -14.5156536
   1061,   22.9121418,  -14.8068218
   1062,   20.7569695,  -14.9194708
   1063,   18.9175968,  -14.6663265
   1064,   16.1414814,  -14.6937027
   1065,   14.2890654,  -14.8610296
   1066,   12.9529324,  -14.2286444
   1067,   10.8687534,  -14.6344299
   1068,   8.32278919,  -14.6033192
   1069,   6.06247377,   -14.785985
   1070,    3.9552362,  -15.0105972
   1071,   2.18867397,   -14.290906
   1072, -0.0640915632,   -14.995801
   1073,   -2.4841187,  -14.5077019
   1074,  -6.47019005,  -14.7037649
   1075,    -8.540658,  -14.9952679
   1076,  -10.1628866,  -14.4592991
   1077,  -12.6440907,  -15.0390015
   1078,  -14.2281666,  -15.1660891
   1079,  -16.7175293,  -15.1132746
   1080,  -18.2534542,  -14.9408865
   1081,  -20.0816326,   -14.330678
   1082,  -24.9735451,  -14.5410185
   1083,  -27.5866146,  -14.5931015
   1084,   -29.459219,  -14.0920572
   1085,  -31.2993126,  -14.0535965
   1086,  -33.7759819,  -14.4295616
   1087,  -35.6295662,  -14.4105349
   1088,   35.5213585,  -12.5436773
   1089,   33.3960724,  -12.5507421
   1090,   30.8787727,  -12.5964165
   1091,   29.2108936,  -12.6752987
   1092,    26.709198,  -12.8323431
   1093,   25.0370235,  -12.6309376
   1094,   22.7500763,  -12.7474327
   1095,   20.8389683,  -12.3614235
   1096,   18.4553871,  -12.8453598
   1097,   16.8896141,  -12.3854933
   1098,   13.8669405,  -12.5948734
   1099,   12.5783901,  -12.1756048
   1100,   10.3920116,  -12.2745304
   1101,   8.18251514,   -12.998476
   1102,   4.23688698,  -12.7581892
   1103,   1.64247513,  -12.7454653
   1104, -0.206470743,  -12.4420986
   1105,  -2.03279305,  -12.8666582
   1106,  -3.81976628,   -12.169323
   1107,    -6.301929,  -12.4185781
   1108,  -8.32555866,  -12.4075556
   1109,  -10.4634943,  -12.8826904
   1110,  -12.8313894,  -12.5646286
   1111,  -14.7906532,  -12.5666094
   1112,  -16.9167709,  -12.5383024
   1113,  -18.8311577,  -12.4693422
   1114,  -20.5943432,  -12.5691481
   1115,  -22.9731102,  -12.6414652
   1116,  -25.0306225,  -12.7694426
   1117,  -26.2276287,  -12.2058411
   1118,   -28.909647,  -12.4539995
   1119,  -31.0419254,   -12.391304
   1120,  -33.5313148,  -12.5864859
   1121,  -35.5320816,   -12.454607
   1122,   35.5784569,  -10.5947304
   1123,   33.5627594,  -10.5977335
   1124,   31.2919807,  -10.1114979
   1125,   29.2451897,  -10.7571945
   1126,   27.5281525,  -10.3762465
   1127,   24.8447399,  -10.5786448
   1128,   22.5709782,  -9.89852238
   1129,   21.3408489,  -10.3450575
   1130,   19.6998291,  -10.5702887
   1131,   16.9988155,  -10.2206697
   1132,   14.5433969,  -10.6288662
   1133,   11.9323149,  -10.7228241
   1134,   10.4747581,  -9.94616604
   1135,   8.44115639,  -10.9391394
   1136,   6.30643225,  -10.7389631
   1137,   4.39794636,  -10.6441851
   1138,   2.09068918,   -10.660306
   1139,  0.223316789,  -10.9370632
   1140,  -2.31488156,  -10.9806595
   1141,  -4.67312336,  -10.3102903
   1142,  -5.95153236,  -10.1028643
   1143,  -10.3716288,  -10.3556585
   1144,  -12.5579195,  -10.6083393
   1145,  -14.5621462,  -10.4768353
   1146,  -17.0702705,  -10.6058435
   1147,  -19.0113201,  -10.2022543
   1148,  -20.6575241,  -10.5513544
   1149,  -23.2757244,  -10.4884787
   1150,  -24.7053738,  -10.3658352
   1151,  -26.4931793,  -10.5956001
   1152,  -28.4345341,  -10.7919416
   1153,  -31.3178387,  -10.3670511
   1154,   -32.987709,  -10.4880753
   1155,   -35.433239,  -10.4768391
   1156,   35.2933693,   25.4139099
   1157,    33.195076,   25.1853294
   1158,   31.1571636,   24.7052135
   1159,   29.3282871,   25.3672829
   1160,   27.4404278,   24.9817467
   1161,   24.7372646,   25.0684185
   1162,   22.7695084,   24.9299431
   1163,   20.7493248,   24.8322659
   1164,   18.9374142,   24.9397354
   1165,   16.8423462,   25.2025967
   1166,    14.597209,   25.6432285
   1167,    12.639267,   25.3648586
   1168,   10.0888405,   25.0290051
   1169,    8.1217165,   25.0576115
   1170,   6.02159119,   24.7405663
   1171,   3.98570895,   24.7328568
   1172,   2.11088872,   24.7462807
   1173,  0.271067947,   25.3069897
   1174,   -2.1838212,   25.9326534
   1175,  -4.09082747,   25.5625153
   1176,  -5.89240217,   25.2790394
   1177,  -7.91293383,   24.6282139
   1178,  -10.4495029,   24.8225613
   1179,  -12.8126211,   25.6104088
   1180,  -14.6093826,   25.3768005
   1181,  -16.4005661,   25.7546291
   1182,  -18.4994164,   24.3898392
   1183,  -20.9818516,   24.5950432
   1184,  -22.7149582,   25.3413868
   1185,  -24.6943474,   24.9179821
   1186,  -26.8329811,   25.3409424
   1187,  -29.0798912,   25.2446461
   1188,  -30.9017715,   24.8233147
   1189,  -32.7946396,   24.6202068
   1190,  -35.6331139,   24.5339699
   1191,   35.4386406,   27.3581448
   1192,    33.300663,   27.1273327
   1193,   31.0393066,   27.7239876
   1194,   28.9414406,   27.1026669
   1195,   27.2930565,   27.2699413
   1196,   25.0579529,    27.085537
   1197,   23.4006996,   27.4665051
   1198,   20.7817039,   26.9084702
   1199,   19.3589916,   27.0634289
   1200,   16.4705105,    26.920433
   1201,   14.5330658,   27.8615818
   1202,   12.3418493,   27.3945637
   1203,   10.4803381,    27.000658
   1204,   8.45052242,   26.9976616
   1205,   6.54313564,   27.0947704
   1206,   4.09155893,   26.6758842
   1207,   1.57867587,   27.7115879
   1208,  -1.69635367,   27.4239445
   1209,  -3.83417463,   26.8385124
   1210,  -6.49252319,   26.9199924
   1211,  -8.38778591,   27.3114624
   1212,  -10.9691582,   26.8257179
   1213,  -12.3997936,   27.3420773
   1214,   -14.593791,   27.3134956
   1215,   -16.482378,   27.7443237
   1216,  -18.1218853,   26.4964294
   1217,  -20.5994186,   26.9435081
   1218,  -25.0374298,    26.945591
   1219,   -26.835186,   27.8446102
   1220,  -29.2729855,   27.6121483
   1221,  -31.3635483,   26.6939259
   1222,  -33.8506088,   27.3740788
   1223,  -35.6563683,   27.4619675
   1224,   35.4204826,    29.389164
   1225,   30.9507866,   29.4391804
   1226,   29.3820152,   29.1566181
   1227,    26.963913,   29.4149532
   1228,   24.7449455,   29.0306702
   1229,   22.7903938,   29.4394741
   1230,   20.8340721,   29.0850964
   1231,   18.7946968,   28.7616539
   1232,   16.7763577,   29.2976418
   1233,   12.0407286,   29.4229317
   1234,   11.0471239,   29.2415619
   1235,   8.39761639,   29.0433731
   1236,   6.12421942,   28.9665165
   1237,   4.13325214,    29.321249
   1238,   2.41705465,     29.19944
   1239, 0.0595007427,   28.8329964
   1240,  -2.30903435,   28.9386063
   1241,  -4.09417725,   28.7023869
   1242,  -5.77850389,   29.2843647
   1243,  -7.89097118,   29.5856457
   1244,  -10.3260412,   29.0282269
   1245,  -12.9532852,   28.9082508
   1246,  -15.0455599,   29.2589226
   1247,  -16.8155251,   29.1490021
   1248,  -18.5538845,   29.0891171
   1249,  -20.2257462,   28.9308548
   1250,  -22.7943287,   28.8773556
   1251,  -25.3040733,   28.9235039
   1252,  -27.1238632,   29.7611694
   1253,  -29.0479774,   29.4534626
   1254,  -31.6289101,   28.6959209
   1255,  -33.7464142,   29.1674118
   1256,  -35.6027298,   29.3882103
   1257,   35.4475555,   31.4085808
   1258,   33.5255394,   31.3215561
   1259,   31.2859993,     31.28022
   1260,   29.4671993,   31.8638172
   1261,   27.4254951,   31.1742382
   1262,   24.5781498,   30.5890827
   1263,   22.6692982,   31.5228863
   1264,   20.2109928,   31.1595955
   1265,   18.6487751,   31.3680267
   1266,   17.1879177,   31.2789726
   1267,   15.3066282,   30.6090546
   1268,   11.7288065,   31.5852623
   1269,   10.5560694,   31.5109138
   1270,   8.07892799,   31.1542587
   1271,   6.15664768,   31.0738525
   1272,   4.21045494,   31.2215157
   1273,   2.19568777,   31.2920399
   1274, -0.222333357,   30.5562344
   1275,   -2.2382338,   31.3252525
   1276,   -4.3955965,   30.4984283
   1277,  -5.98209763,    31.153492
   1278,   -8.1910677,   30.9454613
   1279,  -10.4088993,   30.1899223
   1280,   -12.461092,   30.6871796
   1281,  -14.7650404,   30.9953823
   1282,  -16.3695774,   31.0340061
   1283,  -18.7978954,   30.8528423
   1284,   -21.348217,   31.6812973
   1285,  -22.8866272,   30.7605915
   1286,  -25.4373951,   30.8137093
   1287,  -27.2991657,   31.8326092
   1288,  -29.2734642,   31.5932693
   1289,  -31.4107227,   30.5460663
   1290,  -33.5685883,   30.9646187
   1291,   -35.479599,   31.3555832
   1292,    35.418766,   33.4312363
   1293,   33.1209145,   33.3039932
   1294,    31.220377,   33.9414749
   1295,   28.6911869,   33.8005905
   1296,   26.9473629,   33.8651047
   1297,   24.9842148,    33.311161
   1298,   23.1106758,   33.5420036
   1299,   20.4850979,   33.6314163
   1300,   18.6228008,   33.6319695
   1301,   17.0826187,   33.5450859
   1302,   14.1474781,   33.6128044
   1303,   12.4010344,   33.7318687
   1304,   10.5570097,   33.1425667
   1305,   8.19791508,   33.0501671
   1306,   6.54634094,   32.8341446
   1307,   3.95391631,    33.337532
   1308,   1.96588981,   33.6061859
   1309, -0.189412922,   32.3481483
   1310,  -1.75486386,   33.5485725
   1311,  -4.32500839,   33.6006813
   1312,  -6.40752172,   33.3397026
   1313,  -7.99661112,   33.1903915
   1314,  -10.4696722,    32.192276
   1315,  -12.7754469,   33.5897751
   1316,    -14.60112,    33.657341
   1317,  -16.4433098,   33.6793823
   1318,   -18.260973,   33.6870079
   1319,  -20.8439884,     33.62994
   1320,  -23.0629005,   33.3899841
   1321,   -25.491993,   32.7337914
   1322,  -27.2477436,   33.8369293
   1323,  -29.6568356,   33.1451149
   1324,  -33.2405701,   33.2284393
   1325,  -35.3911438,    33.362957
   1326,   35.4433594,   35.4573326
   1327,    33.415596,   35.4958382
   1328,   30.4831333,   35.6756935
   1329,   28.6079311,   35.6135216
   1330,   26.5501118,   35.2061462
   1331,   24.3840504,   35.4372711
   1332,   22.4161835,   35.5611649
   1333,   20.4778023,    35.586544
   1334,   18.5449696,   35.5362244
   1335,   16.4762669,   35.3978615
   1336,   14.4340897,   35.5237007
   1337,    12.489378,   35.6353111
   1338,    10.588789,   35.7132912
   1339,   7.77077484,    35.673008
   1340,   5.69888926,   35.0976028
   1341,   3.56143212,   35.5343819
   1342,   1.56787109,    35.148922
   1343, -0.581609964,   35.4457474
   1344,  -2.52802229,   35.5459938
   1345,  -4.45605946,   35.5219955
   1346,  -6.35687923,    35.445549
   1347,  -8.38840294,   34.9283867
   1348,  -10.6286316,   35.3539124
   1349,  -12.6025352,    35.501194
   1350,   -14.543191,   35.5377274
   1351,  -16.4694557,   35.5593796
   1352,  -19.3329315,    35.599884
   1353,   -21.224308,   35.5587273
   1354,  -23.2597675,     35.26688
   1355,  -25.4226112,   35.5834503
   1356,  -27.3470726,   35.6732903
   1357,  -29.2636967,    35.649395
   1358,  -31.2920322,   35.4343071
   1359,  -33.3783455,    35.397274
   1360,  -35.4316826,   35.4293785
   1361,   20.7865219,   12.5626631
   1362,   20.0557766,   14.4446459
   1363,   18.9654922,   16.1471653
   1364,   18.3260117,   16.9312363
   1365,   16.9019184,   18.3516121
   1366,   16.1249886,   18.9822598
   1367,   14.4397211,   20.0583591
   1368,   12.5788813,   20.7826176
   1369,   9.20203495,   17.4860554
   1370,   9.92107582,   15.5997229
   1371,   11.0043564,   13.8927755
   1372,   11.6410866,   13.1064701
   1373,   13.0687628,   11.6739893
   1374,   13.8528357,   11.0345078
   1375,   15.5553541,    9.9442234
   1376,   17.4373379,   9.21347809
   1377,   36.5384598,        -37.5
   1378,   34.6153831,        -37.5
   1379,   32.6923065,        -37.5
   1380,   30.7692299,        -37.5
   1381,   29.8076916,        -37.5
   1382,   27.8846149,        -37.5
   1383,   25.9615383,        -37.5
   1384,   24.0384617,        -37.5
   1385,   22.1153851,        -37.5
   1386,   20.1923084,        -37.5
   1387,   18.2692299,        -37.5
   1388,   17.3076916,        -37.5
   1389,   15.3846149,        -37.5
   1390,   13.4615383,        -37.5
   1391,   11.5384617,        -37.5
   1392,   9.61538506,        -37.5
   1393,   7.69230747,        -37.5
   1394,   5.76923084,        -37.5
   1395,   4.80769253,        -37.5
   1396,   2.88461542,        -37.5
   1397,  0.961538434,        -37.5
   1398,         37.5,         36.5
   1399,         37.5,         34.5
   1400,         37.5,         32.5
   1401,         37.5,         30.5
   1402,         37.5,         28.5
   1403,         37.5,         26.5
   1404,         37.5,         24.5
   1405,         37.5,         23.5
   1406,         37.5,         21.5
   1407,         37.5,         19.5
   1408,         37.5,         17.5
   1409,         37.5,         15.5
   1410,         37.5,         13.5
   1411,         37.5,         11.5
   1412,         37.5,          9.5
   1413,         37.5,          7.5
   1414,         37.5,          5.5
   1415,         37.5,          3.5
   1416,         37.5,          1.5
   1417,         37.5,         -0.5
   1418,         37.5,         -1.5
   1419,         37.5,         -3.5
   1420,         37.5,         -5.5
   1421,         37.5,         -7.5
   1422,         37.5,         -9.5
   1423,         37.5,        -11.5
   1424,         37.5,        -13.5
   1425,         37.5,        -15.5
   1426,         37.5,        -17.5
   1427,         37.5,        -19.5
   1428,         37.5,        -21.5
   1429,         37.5,        -23.5
   1430,         37.5,        -24.5
   1431,         37.5,        -26.5
   1432,         37.5,        -28.5
   1433,         37.5,        -30.5
   1434,         37.5,        -32.5
   1435,         37.5,        -34.5
   1436,         37.5,        -36.5
   1437,        -36.5,         37.5
   1438,        -34.5,         37.5
   1439,        -32.5,         37.5
   1440,        -30.5,         37.5
   1441,        -28.5,         37.5
   1442,        -26.5,         37.5
   1443,        -24.5,         37.5
   1444,        -23.5,         37.5
   1445,        -21.5,         37.5
   1446,        -19.5,         37.5
   1447,        -17.5,         37.5
   1448,        -15.5,         37.5
   1449,        -13.5,         37.5
   1450,        -11.5,         37.5
   1451,         -9.5,         37.5
   1452,         -7.5,         37.5
   1453,         -5.5,         37.5
   1454,         -3.5,         37.5
   1455,         -1.5,         37.5
   1456,          0.5,         37.5
   1457,          1.5,         37.5
   1458,          3.5,         37.5
   1459,          5.5,         37.5
   1460,          7.5,         37.5
   1461,          9.5,         37.5
   1462,         11.5,         37.5
   1463,         13.5,         37.5
   1464,         15.5,         37.5
   1465,         17.5,         37.5
   1466,         19.5,         37.5
   1467,         21.5,         37.5
   1468,         23.5,         37.5
   1469,         24.5,         37.5
   1470,         26.5,         37.5
   1471,         28.5,         37.5
   1472,         30.5,         37.5
   1473,         32.5,         37.5
   1474,         34.5,         37.5
   1475,         36.5,         37.5
   1476,        -37.5,        -36.5
   1477,        -37.5,        -34.5
   1478,        -37.5,        -32.5
   1479,        -37.5,        -30.5
   1480,        -37.5,        -28.5
   1481,        -37.5,        -26.5
   1482,        -37.5,        -24.5
   1483,        -37.5,        -23.5
   1484,        -37.5,        -21.5
   1485,        -37.5,        -19.5
   1486,        -37.5,        -17.5
   1487,        -37.5,        -15.5
   1488,        -37.5,        -13.5
   1489,        -37.5,        -11.5
   1490,        -37.5,         -9.5
   1491,        -37.5,         -7.5
   1492,        -37.5,         -5.5
   1493,        -37.5,         -3.5
   1494,        -37.5,         -1.5
   1495,        -37.5,          0.5
   1496,        -37.5,          1.5
   1497,        -37.5,          3.5
   1498,        -37.5,          5.5
   1499,        -37.5,          7.5
   1500,        -37.5,          9.5
   1501,        -37.5,         11.5
   1502,        -37.5,         13.5
   1503,        -37.5,         15.5
   1504,        -37.5,         17.5
   1505,        -37.5,         19.5
   1506,        -37.5,         21.5
   1507,        -37.5,         23.5
   1508,        -37.5,         24.5
   1509,        -37.5,         26.5
   1510,        -37.5,         28.5
   1511,        -37.5,         30.5
   1512,        -37.5,         32.5
   1513,        -37.5,         34.5
   1514,        -37.5,         36.5
   1515, -0.986842096,        -37.5
   1516,  -2.96052623,        -37.5
   1517,   -4.9342103,        -37.5
   1518,  -6.90789461,        -37.5
   1519,   -8.8815794,        -37.5
   1520,   -9.8684206,        -37.5
   1521,  -11.8421049,        -37.5
   1522,  -13.8157892,        -37.5
   1523,  -15.7894735,        -37.5
   1524,  -17.7631588,        -37.5
   1525,  -19.7368412,        -37.5
   1526,  -21.7105255,        -37.5
   1527,  -23.6842098,        -37.5
   1528,  -25.6578941,        -37.5
   1529,  -27.6315784,        -37.5
   1530,  -28.6184216,        -37.5
   1531,  -30.5921059,        -37.5
   1532,  -32.5657883,        -37.5
   1533,  -34.5394745,        -37.5
   1534,  -36.5131569,        -37.5
   1535,  0.652018428,   -8.0063982
   1536,   -1.1810441,  -8.01387691
   1537,  -1.74756622,  -7.97595167
   1538,   1.23265731,  -7.98750305
   1539,  -2.31210089,  -7.91672325
   1540,   1.79862273,  -7.95183134
   1541, -0.447022259,   8.00412941
   1542,   1.15632629,   7.89770603
   1543,  -2.87340474,  -7.83834505
   1544,   2.35965204,   -7.9042201
   1545,  -3.43153858,  -7.74868631
   1546,   2.91913867,  -7.84234524
   1547,  -1.03017485,   7.98902607
   1548,   1.71378028,   7.80505562
   1549,   -3.9866724,  -7.64904261
   1550,   3.47708201,  -7.76462221
   1551,  -4.53773642,  -7.54225969
   1552,   4.03014898,  -7.66747665
   1553,  -5.08504534,  -7.42786217
   1554,   4.57572412,  -7.55419827
   1555,  -1.65046537,   7.95498133
   1556,   2.27961516,   7.68392038
   1557,  -5.62719488,  -7.30608797
   1558,   5.12412453,  -7.43068218
   1559,  -6.16375971,  -7.18104267
   1560,   5.68643522,   -7.3014493
   1561,  -6.71002626,   -7.0599165
   1562,   6.25956202,  -7.16887331
   1563,  -2.29558992,   7.85791302
   1564,   2.85004735,   7.52801561
   1565,  -7.26935101,  -6.97930336
   1566,   6.85133696,  -7.02886868
   1567,  -2.91030645,   7.62311316
   1568,   3.42945242,   7.33098412
   1569,  -3.49461627,   7.34462261
   1570,   4.02274036,   7.09246683
   1571,  -9.66922665,  -2.11495519
   1572,   9.79115963,  -2.68764853
   1573,  -4.06275368,   7.05008745
   1574,   4.63509512,   6.80444717
   1575,  -7.80295134,  -6.96002626
   1576,    7.4847517,   -6.8654952
   1577,  -4.62768507,   6.73535872
   1578,   5.24970388,   6.44572163
   1579, 0.0234709587,  -8.01598454
   1580, -0.605149508,  -8.02562523
   1581,  -9.61690426,  -2.82203126
   1582,   9.62415791,  -3.35673046
   1583,  -5.20252991,   6.39105034
   1584,   5.82173729,   5.97288609
   1585,  -9.52027702,  -3.52702069
   1586,   9.52741432,  -4.00275469
   1587,  -5.80610323,   6.01030588
   1588,   6.38413286,   5.45839024
   1589,  -9.36933517,  -4.24417448
   1590,   9.55955315,  -4.59822416
   1591,  -9.74951172, -0.524926841
   1592,   9.75875092,  -1.06052613
   1593,   9.22890377,   1.23305857
   1594,   -8.9188118,   2.03228784
   1595,  -9.83072853,  0.414034158
   1596,   9.57767105, -0.299974233
   1597,   9.03084087,   2.04238725
   1598,  -8.54170227,   2.74245119
   1599,   6.95023155,   4.90437412
   1600,  -6.47711563,   5.58383656
   1601,  -9.15730572,  -4.97206163
   1602,   9.28406143,  -5.51760578
   1603,  -9.32401276,   1.29995632
   1604,   9.41001606,  0.454867423
   1605,  -9.70636082,  -1.33215427
   1606,   10.0257006,  -1.89623153
   1607,   8.80065918,   3.00019979
   1608,   -8.1555481,    3.4612937
   1609,   7.52754068,   4.30216455
   1610,   -7.3299551,   5.07214975
   1611,  0.678819835,  -8.53837013
   1612, 0.0876609683,   7.99901676
   1613,   0.60895586,   7.96286249
   1614,   1.27113748,  -8.51206875
   1615,   2.99383068,  -8.38113022
   1616,     3.566921,  -8.30908203
   1617,   4.67484093,  -8.09050274
   1618,   5.21374464,  -7.95270443
   1619,  -5.66818428,  -7.87950182
   1620,    5.7807641,  -7.82952166
   1621,   -6.1916647,  -7.77033043
   1622,   6.36229229,  -7.72209883
   1623,  -6.70081902,  -7.64228058
   1624, -0.975650609,   8.54280663
   1625,  -7.21804857,  -7.63990307
   1626,    6.9668355,  -7.62119865
   1627,  -3.19513392,   8.17630005
   1628,   3.00902152,   8.02924824
   1629, -0.558331311,  -8.59063148
   1630,   -3.7974813,   7.84400463
   1631,   3.60983181,   7.84905481
   1632,  -4.37519979,   7.53418732
   1633,   4.23481703,   7.63233757
   1634,  -10.2594624,  -3.04853845
   1635,   8.22454166,  -7.49402475
   1636,  -8.42426109,   -7.1098094
   1637,  -4.94467688,   7.22930813
   1638,   4.90510321,     7.375175
   1639,   -7.7256937,   -7.7148447
   1640,   7.59936905,  -7.53560209
   1641,  -1.74374998,  -8.54276371
   1642,  -5.52193308,   6.91056108
   1643,  -10.1394386,  -3.78383398
   1644,   10.2803354,  -3.47500777
   1645,  -2.90642452,  -8.36661148
   1646,    5.6779089,   7.06234074
   1647,   8.79574203,  -5.98691893
   1648,  -5.12782907,  -7.97866201
   1649,  -3.47248054,  -8.26824856
   1650,   9.82205391,   2.16649532
   1651,  -9.55602837,   2.37201381
   1652,  -10.4625273,  -1.55375123
   1653,   10.1091814,  0.622457683
   1654,   9.95613575,   1.37955868
   1655,  -9.99397469,   1.72161531
   1656, -0.370183766,   8.52338505
   1657,  0.739074647,   8.43768311
   1658,  -5.15486145,  -8.54943085
   1659,   5.31035328,  -8.46345425
   1660,    5.8594408,   -8.3639679
   1661,   7.03284073,  -8.24184036
   1662,   8.96290302,  -6.98915482
   1663,  -2.48036313,   8.60577202
   1664,    9.7967577,  -6.11363745
   1665,   4.80939865,  -8.65293407
   1666,   -4.6171875,  -8.61754036
   1667,   3.65950394,  -8.87108421
   1668,  -3.51986909,  -8.79155254
   1669,  0.124780215,  -9.12857151
   1670,  -3.59160256,    8.6839819
   1671,  -7.58721352,  -8.39087486
   1672,   7.65670109,  -8.21349621
   1673,  -10.9194403,  -3.30142355
   1674,   -9.3002491,  -6.66599941
   1675,  -1.75701523,  -9.14600372
   1676,   1.90243018,  -9.01143456
   1677,  -4.69482756,   8.03402328
   1678,  -2.95448208,  -8.90104008
   1679,    3.0696032,   -8.9288063
   1680,   10.5366154,  -2.92207336
   1681,  -5.70457649,  -8.49612522
   1682,  -2.37008047,  -9.02536964
   1683,   2.48364568,  -8.97456074
   1684,   -7.1033783,  -8.24642849
   1685,   10.8210506,  0.777626276
   1686,  -9.97739315,  -4.52306032
   1687,   3.75181723,    8.4055233
   1688,  -10.5288038,   1.09072745
   1689,  -9.18034744,    3.0418098
   1690,   1.32713795,   -9.0419178
   1691,  -1.12102389,  -9.23549271
   1692,  -1.48716784,   9.19281006
   1693,   11.3016739,  -3.31650281
   1694,   5.06130648,   8.01391602
   1695,   8.27529049,  -8.21764755
   1696,  -8.28830242,  -7.86131907
   1697,   10.6947107,   1.49403024
   1698,  -6.40811968,    7.1652832
   1699,   6.72031832,   6.88727808
   1700,   1.28664696,   8.36345291
   1701,  -8.87215137,  -5.70253515
   1702,   9.76258755,   2.96467304
   1703,   2.42262149,   8.16557598
   1704,  -10.6077414, -0.799470305
   1705,  -5.15098619,  -9.12711239
   1706,   5.43022156,  -8.88311195
   1707,   3.74193096,  -9.44264793
   1708,  -3.58067274,  -9.32327557
   1709,   2.54019547,   8.66693211
   1710,  -2.14351678,   9.34962654
   1711, -0.237921298,    9.0579834
   1712,  0.327501982,   8.98875523
   1713,  -11.3953905,  -1.14567053
   1714,   11.5301561,  0.900662482
   1715,   4.25188684,  -8.78781509
   1716,  -4.07406473,  -8.69931412
   1717,  -10.6396646,   -4.8158555
   1718,   2.54557681,   -9.5180645
   1719,   -2.4541862,  -9.59164429
   1720,   -9.5371542,  -5.98465967
   1721,   5.88603687,  -8.91631413
   1722,  -6.15381861,  -9.16411018
   1723,  -7.38886118,  -9.02430058
   1724,   7.06343079,  -8.87801266
   1725, -0.840531826,   9.12534809
   1726,  0.739229798,  -9.07739353
   1727,  -6.87159967,  -8.78620148
   1728,   6.45677328,  -8.90500927
   1729,  -11.6561852, -0.498780459
   1730,  -3.09498954,   9.11553192
   1731,   8.80893517,  -7.59137297
   1732,   11.5444813,  -2.64763832
   1733,  -3.60086918,   9.55892754
   1734,   3.86770773,   9.01431751
   1735, -0.497518569,  -9.20046043
   1736,  -11.0478697,  -2.56538463
   1737,  -9.09040642,  -7.36453247
   1738,   5.74954891,   7.85649681
   1739,  -4.47591686,   8.81869698
   1740,   4.50410604,   8.82164669
   1741,  -5.82631254,    7.4849267
   1742,  -7.03435993,   6.87262106
   1743,   10.7809019,   -4.1338048
   1744,   7.28394508,   6.46202183
   1745,  0.873512805,   8.90977669
   1746,   10.9605446,   0.11949487
   1747,  -11.1490641,   1.67874825
   1748,  -11.2427273,  0.562969446
   1749,   1.41051328,   8.83359528
   1750,  -1.83292413,  -9.78667355
   1751,   1.96391058,   -9.5509119
   1752,  -3.02948618,  -9.44477844
   1753,    3.1391499,  -9.48165607
   1754,   10.5687284,   3.00531459
   1755, -0.0318030268,   9.62049389
   1756,   -7.1511426,  -9.63806248
   1757,   7.07181597,  -9.52196884
   1758,  -1.08644438,  -10.0418825
   1759,  0.236070082,  -9.68986511
   1760,   3.13436294,   8.56226063
   1761,  -2.71929502,   9.66074753
   1762,  -11.2062674,  -1.84083807
   1763,  -11.7341003,  -2.83774424
   1764,  -3.14007306,  -9.98370457
   1765,   3.19509888,  -10.0358009
   1766,  -12.4140034, -0.899042547
   1767,  -1.84894121,   9.99253178
   1768,  0.513397217,   9.49850559
   1769,   0.82946384,  -9.61080456
   1770,  -11.7615919,   1.17000306
   1771,  -5.56247568,   8.38044167
   1772,  -2.04300952,  -10.3908701
   1773,   2.02298188,  -10.1039915
   1774,   5.16970158,   8.65406895
   1775,   2.04546976,   9.21764183
   1776,  -2.60249639,  -10.1651402
   1777,   2.60604978,  -10.0637922
   1778,  -11.4730492,  -4.31453037
   1779,  -5.26032686,   7.76761055
   1780,  -9.77367592,  -5.25946951
   1781,    -6.685987,   7.77053642
   1782,   -7.2216568,   7.46437454
   1783,   6.83253431,   5.93259668
   1784,   7.07992506,   7.45696449
   1785,    12.189455,  -3.35010409
   1786,    10.642458,  -4.80230474
   1787,  -1.24662626,   9.83683872
   1788,   9.81728745,  -7.00116301
   1789,   8.89026928,  -8.23825932
   1790,  -8.90373325,  -8.08214092
   1791,  -10.0006609,  -6.97043324
   1792,   11.1402893, -0.463001817
   1793,   6.42413378,   7.75978518
   1794,   11.2921333,  -1.78281271
   1795,  -11.7582846,   2.24973869
   1796, -0.629320621,   9.72863007
   1797,   4.37436771,  -9.38939381
   1798,  -3.24532127,   10.0374603
   1799,  -1.48376358,  -10.7066498
   1800,   1.46754241,  -10.1309557
   1801,  0.241717473,   10.2002735
   1802,   9.02262497,  -8.90933228
   1803,  -9.31993008,  -9.06217098
   1804,   -12.320118,   1.75326085
   1805,   1.01853621,   9.37334442
   1806,   7.87547588,   5.97985172
   1807,   7.71665668,  -9.52942467
   1808,   6.43517447,  -9.51304817
   1809,  -4.16738367,  -9.77440643
   1810,  -7.92365694,  -9.27395153
   1811,   2.60453439,   9.19258499
   1812,  -3.29328752,  -10.5258465
   1813,  -7.37106276,   7.90788174
   1814,   -4.8318181,   9.27992439
   1815,  -10.4592466,  -5.56338739
   1816,   5.26431942,   9.28347778
   1817,  -1.56629205,   10.6129494
   1818,   7.41408491,   5.41001844
   1819,  -11.5956879,  -3.55626607
   1820,  -8.13167667,  -8.58011627
   1821,  -9.77075768,  -7.65500784
   1822,   9.23480129,  -7.67738247
   1823,  -7.80837154,   7.35692501
   1824,  -11.3692865,  -5.10104275
   1825,   2.66421533,  -10.6002893
   1826,  -12.0027704,  0.105335854
   1827,   11.4701071,  -4.68968439
   1828,   10.1261902,  -4.45314217
   1829,   11.4460936,  -4.05611658
   1830,   11.8505383,  -2.06882596
   1831,    10.796298,  -1.33944225
   1832,  -7.06075668,   8.29958439
   1833,  -2.39698815,   10.2469673
   1834,   11.7218132, -0.234066516
   1835,   10.4855986, -0.757234633
   1836,  -11.2696686,   2.75968742
   1837,   7.69338179,  -8.87913227
   1838,  -6.02659798,  -9.70957184
   1839,   5.79303169,  -9.46957779
   1840,   5.08385468,  -9.29794788
   1841,  -4.65801048,  -9.73059559
   1842,   9.18755436,   3.90425467
   1843,  -8.85484695,   3.73563147
   1844,   11.4179173,   1.58624852
   1845,  -12.1448593,  -1.50894523
   1846,  -1.28695011,   11.2099934
   1847,  -7.62889385,   8.57285404
   1848,   4.41087103,  -10.0060244
   1849,  0.804213107,   10.0232401
   1850,   3.22042656,   9.16603661
   1851,   2.08750367,   9.60637283
   1852,   1.46948993,  -10.7836418
   1853,  -1.81735313,  -11.3109283
   1854,  -3.76003814,  -10.3915453
   1855,  -4.11900806,  -9.23590469
   1856,   7.73893738,   -10.206913
   1857,   9.57605934,   4.57738543
   1858,  -9.21422005,   5.30344009
   1859,  -7.66110468,  -9.97733688
   1860,   8.37194061,  -9.54750252
   1861,  -9.54891968,  -8.35195637
   1862,  -4.42389059,   9.59332752
   1863,  -13.1272507,  -1.28928447
   1864,  -5.59383726,   -9.6886034
   1865,  -6.65696478,  -9.36093235
   1866,  -11.9227686,  -2.15372753
   1867,   12.1106977,   1.67080677
   1868,   7.06102514,  -10.1973591
   1869,  -2.93020296,   10.5691271
   1870,  -8.48579311,   -9.5414505
   1871,  -6.59359217,   8.93341541
   1872,   12.2146158,  -4.70657253
   1873,   -12.414299,  -3.10681391
   1874,  -7.81176138,   7.98007107
   1875,  -7.70584583,   6.69720411
   1876,   10.3519478,  -5.77303934
   1877,   3.23403001,  -10.5908852
   1878,   11.3859739, -0.941376328
   1879,  -12.1710339,  -4.51280975
   1880,   11.4014015,  -6.01543331
   1881,  -12.3723307,   2.81858158
   1882,  -12.4358349,  0.696173847
   1883,     11.74928,  -1.33056951
   1884,   8.00602245,   4.86185122
   1885,  -2.61929846,  -11.5602474
   1886,   2.22409391,  -11.1680822
   1887,   9.44998264,  -8.15731239
   1888,   10.6496077,  -7.21092033
   1889,  -10.7185783,  -7.29371119
   1890,   1.52698576,    9.3149147
   1891,  -10.1987801,   2.76275063
   1892,  -7.75222301,    4.2126298
   1893,  -9.59827137,   3.97561049
   1894,   9.86784649,   3.71675086
   1895,   8.48347282,   5.46943712
   1896,  -7.55021095,   5.96071243
   1897, -0.378421396,   10.3249912
   1898,   12.2654953,  -2.73880625
   1899,   11.3256454,   2.30527759
   1900,  -4.04592133,   9.96425438
   1901, -0.104227439,  -10.4155045
   1902,   0.40700984,  -10.2301807
   1903,   5.05638313,  -10.0043192
   1904,    4.6164484,   9.41829205
   1905,    6.3870244,  -10.1351566
   1906,  -12.2714195,  -3.77847862
   1907,   29.7893124,  -36.5951385
   1908,   32.6674194,  -36.5700188
   1909,   2.88451719,  -36.5938683
   1910,   4.78246403,  -36.6218796
   1911,   7.60037613,  -36.6379967
   1912,   9.45018864,  -36.5722542
   1913,   11.5230513,  -36.4374542
   1914,   13.4246321,  -36.5642433
   1915,   15.2953806,  -36.6133423
   1916,    17.148077,  -36.5787659
   1917,   20.2144146,  -36.4074707
   1918,   22.1647263,  -36.5091858
   1919,   25.9714069,    -36.53582
   1920,   36.5472183,  -36.5168457
   1921,  0.990005016,  -36.5569611
   1922,   35.5852585,  -36.5303116
   1923,   33.6402359,  -36.5552101
   1924,   28.8302937,  -36.5895615
   1925,   25.0251198,  -36.5116119
   1926,   21.2002583,  -36.4923172
   1927,   19.1143036,  -36.1866989
   1928,   18.0833931,  -36.4754028
   1929,   16.2252026,  -36.6141167
   1930,   14.3616028,  -36.5980453
   1931,    12.484108,   -36.515686
   1932,   10.4719763,  -36.2946587
   1933,   8.52467346,  -36.6283875
   1934,   6.66761494,  -36.6352882
   1935,   5.72814989,  -36.6291466
   1936,   3.83412123,  -36.6100159
   1937,   1.93936503,  -36.5758514
   1938,   27.8713131,  -36.5773888
   1939,   24.0713787,  -36.4961739
   1940,   31.7080421,   -36.584713
   1941,   30.7487144,  -36.5934525
   1942,   26.9201088,  -36.5563278
   1943,   23.1172504,  -36.4921837
   1944,   34.6148491,  -36.5424271
   1945, 0.0229820237,  -36.5309334
   1946,  -4.87231541,  -36.5893211
   1947,  -2.92247057,  -36.5013008
   1948, -0.962664247,  -36.5009232
   1949,  -6.79547787,  -36.5031357
   1950,   -9.9958334,  -36.3487968
   1951,  -11.9433432,  -36.5625687
   1952,  -13.8858709,  -36.5935707
   1953,  -15.8651342,   -36.522171
   1954,  -17.8570938,  -36.4690514
   1955,  -19.8540325,   -36.498127
   1956,  -21.8080254,  -36.5836372
   1957,   -23.743866,  -36.6179504
   1958,  -25.6693821,  -36.6361427
   1959,  -1.94047141,  -36.4804497
   1960,  -3.90491176,  -36.5435486
   1961,  -5.83932543,  -36.5706711
   1962,  -7.77551889,  -36.3663559
   1963,  -8.89167023,  -36.0793648
   1964,  -10.9800377,   -36.486702
   1965,   -12.910512,  -36.5933342
   1966,   -14.869051,  -36.5597115
   1967,  -16.8564053,   -36.478157
   1968,  -18.8640366,  -36.4695549
   1969,  -20.8262367,  -36.5455818
   1970,   -22.777647,  -36.6080589
   1971,  -24.7050915,  -36.6291199
   1972,  -28.6015301,  -36.5723343
   1973,  -30.5660954,  -36.4801407
   1974,  -32.5470238,  -36.4864311
   1975,  -34.5125923,  -36.4835281
   1976,  -26.6366539,   -36.635437
   1977,  -27.6145058,  -36.6145401
   1978,  -29.5862503,  -36.5187263
   1979,  -31.5503883,  -36.4752884
   1980,  -33.5329285,  -36.4887924
   1981,  -35.4988861,  -36.4801102
   1982,   9.50303078,   21.6201687
   1983,   10.8189735,   22.0924892
   1984,   13.0160246,   22.0109673
   1985,   36.4610443,   9.49968433
   1986,   36.4817963,   11.4748678
   1987,    9.5755291,   36.6229401
   1988,   7.60571146,   36.5637589
   1989,   36.3178101,  -26.5155602
   1990,   36.5131073,  -24.4667511
   1991,    36.558857,  -5.63762617
   1992,   36.4861717,  -3.66468477
   1993,   36.3321152,  -1.67427909
   1994,  -36.5702477,   24.5144577
   1995,  -36.5352821,   21.5546894
   1996,  -36.4637489,   32.4369965
   1997,  -36.5208702,   30.4489212
   1998,  -7.46379089,   36.3826485
   1999,  -9.50219917,   36.3366585
   2000,  -5.46662855,   36.4872246
   2001,   1.50767922,   36.3924255
   2002,  -1.51851058,   36.5016136
   2003,   36.3534012,   -28.590477
   2004,   36.5711937,  -21.5014648
   2005,   36.5241013,  -19.5300255
   2006,   36.4950218,  -17.5345669
   2007,   36.4923668,   -15.525423
   2008,   36.5076752,  -13.5207596
   2009,   36.5359383,  -11.5378504
   2010,   36.5578156,  -9.56597805
   2011,   36.5659523,   -7.5968132
   2012,   36.4804764,   1.38730347
   2013,    36.392952,   3.41042137
   2014,   36.3883591,   5.45748615
   2015,   36.4659424,   7.49934292
   2016,   36.5336113,   13.4543285
   2017,   11.5276661,   36.5906219
   2018,   36.5617714,   15.4302769
   2019,    13.489603,   36.5420494
   2020,   36.5673599,   17.3843784
   2021,   15.4876747,   36.4790573
   2022,   36.5523796,   19.3353996
   2023,    17.501297,   36.4840584
   2024,   36.4634323,   21.3263702
   2025,   19.5044537,   36.5345726
   2026,   36.2959709,   23.3399963
   2027,   21.4772377,   36.5413818
   2028,   36.4299126,   26.4273453
   2029,   24.4661598,   36.4557724
   2030,   36.4736595,   28.4411621
   2031,   26.5119953,   36.3920441
   2032,   36.4695168,   30.4469967
   2033,    28.538187,   36.5417137
   2034,   36.4680977,   32.4649811
   2035,   30.4988804,   36.5830345
   2036,   36.4631081,   34.4671326
   2037,   32.4816017,   36.5366402
   2038,   36.4813881,   36.4846001
   2039,   34.4683342,   36.4846725
   2040,   5.58948088,   36.3822365
   2041,   3.54537487,   36.4823761
   2042,  -3.49925685,    36.519474
   2043,  -11.5438643,   36.4611588
   2044,   -13.532424,   36.5070381
   2045,  -15.5014706,   36.5224915
   2046,  -17.4624348,   36.5395126
   2047,  -19.4178543,   36.5530548
   2048,  -21.3782883,   36.5220566
   2049,  -23.3807812,   36.4260406
   2050,  -26.4338932,   36.5652122
   2051,  -28.4050388,   36.5817642
   2052,  -30.4060555,   36.5175896
   2053,  -32.4289932,   36.4503899
   2054,  -34.4523125,   36.4525909
   2055,  -36.4776993,   36.4767189
   2056,   -36.451561,    34.446331
   2057,   -36.567276,   28.4728909
   2058,  -36.5820503,   26.4958897
   2059,  -36.5283508,   19.5867825
   2060,  -36.4821281,   17.5780678
   2061,  -36.4531364,   15.5520325
   2062,  -36.5041084,   13.5341206
   2063,  -36.5636902,   11.5559139
   2064,  -36.6123123,    9.6021452
   2065,  -36.6151199,   7.64814425
   2066,  -36.5137787,   5.68604851
   2067,  -36.3620186,   3.74789119
   2068,  -36.4170876,   1.68317759
   2069,  -36.3907089,  -1.33455634
   2070,    -36.39048,  -3.37920642
   2071,  -36.3860703,   -5.4334693
   2072,  -36.4584923,  -7.47514486
   2073,  -36.4712563,  -9.48857498
   2074,  -36.4980125,  -11.4735422
   2075,    -36.54776,  -13.4565353
   2076,  -36.5806656,  -15.4292364
   2077,  -36.5836639,  -17.3896694
   2078,  -36.5519791,  -19.3439064
   2079,  -36.4474716,  -21.3304844
   2080,  -36.2790947,  -23.3484726
   2081,  -36.4571037,  -26.4405193
   2082,  -36.4936714,   -28.430603
   2083,  -36.4866867,  -30.4242668
   2084,  -36.4640274,  -32.4402542
   2085,  -36.4642029,  -34.4593887
   2086,  -36.4774704,  -35.4716606
   2087,    36.552742,  -34.5630188
   2088,   36.4943123,   -32.620079
   2089,   36.3231506,   -30.653574
   2090,   36.4689903,   35.4737701
   2091,   36.4628868,   33.4669533
   2092,   36.4683495,   31.4543686
   2093,   36.4670143,   29.4467678
   2094,   36.4578705,   27.4209843
   2095,   36.3911934,   25.4302349
   2096,   36.3352242,   24.3914604
   2097,   36.3727379,   22.3362656
   2098,   36.5230064,    20.323925
   2099,   36.5649223,   18.3580914
   2100,   36.5674362,   16.4109554
   2101,   36.5532913,   14.4455414
   2102,   36.5094604,   12.4640608
   2103,   36.4655037,   10.4883795
   2104,   36.4660797,   8.50324821
   2105,    36.443325,   6.49084091
   2106,   36.3308716,   4.41924143
   2107,   36.4569702,   2.39951062
   2108,   36.4506111,  0.382976651
   2109,   36.3827286,  -0.64064908
   2110,   36.4043579,  -2.66974735
   2111,    36.536705,  -4.65204859
   2112,   36.5671921,  -6.61871338
   2113,   36.5631371,   -8.5780859
   2114,   36.5480881,  -10.5515633
   2115,   36.5197716,   -12.527544
   2116,   36.4968147,    -14.52145
   2117,    36.491703,  -16.5294609
   2118,   36.5082092,  -18.5320873
   2119,   36.5503845,  -20.5135021
   2120,   36.5842438,  -22.4787769
   2121,   36.5677032,  -23.4657192
   2122,   36.4130173,  -25.4866295
   2123,   36.3319855,  -27.5497913
   2124,   36.3341866,  -29.6287823
   2125,   36.4101753,  -31.6358452
   2126,   36.5391579,   -33.593544
   2127,   36.5541649,  -35.5370827
   2128,  -35.4622231,   36.4611549
   2129,  -33.4387932,   36.4465828
   2130,  -31.4130459,   36.4710045
   2131,   -29.395752,   36.5616646
   2132,  -27.4194317,   36.5844574
   2133,  -25.4370956,    36.528019
   2134,  -24.4173908,   36.4713097
   2135,  -22.3743286,   36.4746857
   2136,  -20.3970337,   36.5471878
   2137,   -18.439455,   36.5518036
   2138,  -16.4819374,   36.5353622
   2139,  -14.5186758,   36.5204086
   2140,  -12.5422363,   36.4931641
   2141,  -10.5331373,   36.4057503
   2142,  -8.47082233,   36.2945862
   2143,   -6.4516573,   36.4536095
   2144,  -4.48408747,   36.5111275
   2145,  -2.51036334,   36.5194016
   2146, -0.518383503,    36.464901
   2147,  0.496919394,   36.4152107
   2148,   2.51937866,   36.4663773
   2149,   4.56293535,   36.4280624
   2150,   6.59755325,   36.4667091
   2151,   8.60031319,   36.6167755
   2152,    10.551755,   36.6131325
   2153,   12.5050249,   36.5722618
   2154,   14.4835424,   36.5107269
   2155,   16.4885502,   36.4645538
   2156,   18.5094566,   36.5129013
   2157,   20.4883823,   36.5448227
   2158,   22.4681015,   36.5260925
   2159,   23.4621868,   36.4974976
   2160,   25.4843616,   36.4122581
   2161,    27.536726,   36.4749947
   2162,   29.5188866,   36.5766335
   2163,   31.4876976,    36.566864
   2164,   33.4712906,   36.5061989
   2165,   35.4714622,   36.4792366
   2166,  -36.4599991,   -33.449028
   2167,  -36.4771652,  -31.4299488
   2168,  -36.4966431,  -29.4253788
   2169,  -36.4849129,  -27.4398499
   2170,  -36.4063835,  -25.4283981
   2171,  -36.3303032,  -24.3892365
   2172,  -36.3533783,  -22.3415604
   2173,   -36.513298,  -20.3319569
   2174,  -36.5746422,  -18.3658123
   2175,  -36.5864754,  -16.4120483
   2176,  -36.5687866,   -14.447155
   2177,  -36.5226402,  -12.4660511
   2178,  -36.4796829,   -10.482933
   2179,   -36.466114,  -8.48517418
   2180,  -36.4324684,  -6.46439648
   2181,  -36.3412018,  -4.39804125
   2182,  -36.4154205,  -2.36154366
   2183,  -36.3427353, -0.311499178
   2184,  -36.3847046,  0.670502186
   2185,  -36.3954887,   2.71627259
   2186,  -36.4278145,   4.71019363
   2187,  -36.5794716,   6.66790962
   2188,  -36.6236115,   8.62783241
   2189,  -36.5930061,   10.5801249
   2190,  -36.5354385,   12.5431814
   2191,  -36.4757576,   14.5409021
   2192,  -36.4531593,   16.5679111
   2193,  -36.5171852,   18.5923824
   2194,  -36.5342674,   20.5682812
   2195,  -36.5464287,   22.5378246
   2196,  -36.5586891,    23.525177
   2197,  -36.5791817,    25.504837
   2198,  -36.5794868,   27.4841805
   2199,  -36.5508499,   29.4557705
   2200,  -36.4915047,   31.4419441
   2201,  -36.4499817,    33.435585
   2202,  -36.4611549,   35.4597511
   2203,   14.0240622,   21.3205833
   2204,   16.7166233,   19.6767349
   2205,   17.5613155,   19.0390568
   2206,    18.289114,   18.2840309
   2207,   21.4693127,   9.20889473
   2208, -0.179178998,  -11.1898613
   2209,  0.650387943,  -10.7363434
   2210,  -5.12593555,  -10.2717276
   2211,  -5.60662651,  -10.2628431
   2212,  -5.76130199,   9.18184185
   2213,   5.02061701,  -10.6623611
   2214, -0.721716285,   11.0516357
   2215,   -8.3623457,   5.91733074
   2216,  -3.90718174,  -10.9281435
   2217,  -9.08173275,  -9.81209183
   2218,   9.04396057,  -9.57958698
   2219,   8.95342445,   6.07334232
   2220,   1.14127982,   9.77543545
   2221,  -1.82023907,   11.4205561
   2222,   9.85544014,  -8.88706207
   2223,   1.00095963,  -10.5444965
   2224, -0.974950731,  -11.1481457
   2225,  -9.96184921,   -9.3480444
   2226,  -2.63965511,   11.1157455
   2227,   2.71680713,  -11.1133547
   2228,  -6.86114788,  -10.1850891
   2229,   -5.2347765,   9.68363953
   2230,    11.904418, -0.644410193
   2231,  -3.05746102,  -11.2736063
   2232,  -2.15269184,  -11.9012966
   2233,   2.11110067,  -11.8357162
   2234,  -8.07219315,   9.37971401
   2235,   2.77007818,   10.5186758
   2236, -0.585075617,  -10.7011147
   2237,  -11.8856001,   3.33644438
   2238,  -3.72631502,   10.4133587
   2239,   7.72592306,   7.08170462
   2240,   5.71797132,  -10.0680361
   2241,  -12.6127243,  -2.47268867
   2242,   9.92478561,  -5.19005919
   2243,   7.76525164,  -10.8844986
   2244,   -12.144804,  -5.30723524
   2245,  -8.37561417,   5.18327713
   2246,   12.2393532,  0.974471092
   2247,  -12.9342289,   1.27405572
   2248,  -10.8210516,   3.23773646
   2249,   5.32472277,   9.93222523
   2250,  -4.43888092,   10.3170252
   2251,   13.0201979,  -4.62703609
   2252,  -8.19996071,  -10.3390684
   2253,   8.40700817,  -10.2409058
   2254,  -8.43191528,   7.36856651
   2255,   12.1449299,   -5.5283494
   2256,   9.06564236,   4.99102879
   2257,   8.11495876,    3.6756835
   2258,  -12.9970684,   3.37585211
   2259,   11.9970083,   2.36635184
   2260,   11.3170195,   3.86944509
   2261,  -13.0966473,  -3.37304568
   2262,  0.936744153,  -10.1225967
   2263,   3.79148531,  -10.0194073
   2264,  0.543741405,   10.7813845
   2265,  -13.8021221,  -1.67936456
   2266,   11.7802954,  -6.61846066
   2267,   16.9540653,  -35.7013474
   2268,   4.76388311,   -35.726902
   2269,   8.39776707,  -35.7600555
   2270,   20.3745842,  -35.4491043
   2271,   34.6147461,  -35.6029549
   2272,     29.77882,  -35.6969032
   2273,   24.1130886,  -35.4447289
   2274,   27.8781662,  -35.6445847
   2275,   32.6433449,  -35.6513977
   2276,  -7.47051144,  -35.3592339
   2277,  -11.1840839,  -35.5222359
   2278,  -25.6815815,  -35.7587395
   2279, -0.911911666,  -35.4802856
   2280,  -6.09015942,    9.9998188
   2281,   7.02027512,  -10.9295444
   2282,  -3.18217397,   11.4746494
   2283, -0.495074809,  -11.5865088
   2284,   0.53154397,  -11.4306974
   2285,  -9.71578312,  -10.0885229
   2286,   11.9818373,   3.79238749
   2287,   9.74990273,  -9.66672134
   2288,  0.141228899,  -11.5331993
   2289,  0.118172571,   11.5236435
   2290,  -9.13893127,     5.990695
   2291,  -8.80168533,  -10.6184883
   2292,   3.74683762,  -11.2489157
   2293,  -4.65538454,  -10.9960384
   2294,  -4.74559879,   10.5871458
   2295, -0.996020079,     11.80865
   2296,  -1.31549811,  -11.6966181
   2297,  -3.37983441,  -11.7742004
   2298,   4.34315586,  -11.3175802
   2299,   1.29579782,  -11.6877375
   2300,  -2.97721267,  -12.1214275
   2301,   9.04435253,  -10.2705259
   2302,  -7.27002287,  -10.6212721
   2303,   3.24802637,   9.90004063
   2304,   2.25735474,   10.9774208
   2305,  -8.39252472,   8.07469463
   2306,  -10.2075195,  -8.64974022
   2307,  -13.4734383,   1.84281254
   2308,  -11.3646564,   3.90641689
   2309,  -9.11450386,   6.70255852
   2310,   2.73210192,  -11.6311235
   2311,   4.76422548,   9.90601063
   2312,   9.58761692,   5.60841227
   2313,   11.2883253,   3.05368638
   2314,   6.12953806,   9.89411545
   2315,  -8.91712856,   8.94379807
   2316,  -7.40989304,   9.18006134
   2317,  -25.7058392,  -34.8661118
   2318,  -11.4028568,  -34.6050911
   2319,   -7.2012887,  -34.3827705
   2320,   12.9100084,  -1.87486219
   2321,   32.6257172,  -34.7547874
   2322,   29.7858295,  -34.8128662
   2323,   4.75286818,  -34.8139534
   2324,   7.45047665,  -34.8310013
   2325,   19.7857475,  -34.3717499
   2326,   17.4975071,  -34.8110008
   2327,  -12.8630066,   -5.3257103
   2328,  -5.49130821,   -10.682065
   2329,   13.0999184,  -5.33136749
   2330,    12.978735,  -3.94312835
   2331,  -5.55286217,   10.2492971
   2332,   11.1733723,  -6.93448496
   2333,   7.81322289,  -11.5368862
   2334,   11.6146145,  0.285828769
   2335,  -13.8020477,  -3.65542078
   2336,  -13.4912634,   2.88915086
   2337,  -13.5228977,  -2.22622347
   2338,   -13.461566, -0.732524157
   2339,  -5.15846395,  -10.7941818
   2340,   9.97184658,   4.27644157
   2341,  -6.70480061,   9.86348152
   2342,   11.9386873,   3.06548262
   2343,   5.65541458,  -10.6902037
   2344,   28.8307571,  -35.6796265
   2345,   21.2645607,  -35.5453186
   2346,   16.1036987,  -35.7336006
   2347,   9.22506809,  -35.7459068
   2348,   3.83494925,  -35.7046967
   2349,   10.3174276,  -8.33477879
   2350,   27.9243908,  -34.7059746
   2351,   34.6186867,  -34.6923599
   2352,  -5.72513676,  -35.6422119
   2353,  -12.9886913,  -35.6875076
   2354,  -23.8070335,  -35.7212639
   2355,  -2.35174942,   11.6599617
   2356,   4.25970602,  -12.0310268
   2357,  -3.44687748,   10.9266109
   2358,   6.65558481,   -11.358573
   2359,   5.18709183,   10.5978222
   2360,  -5.74546051,   10.9158611
   2361,  -9.46007729,  -10.8730059
   2362,   9.65138245,  -10.3040552
   2363,   11.1178408,  -8.62506962
   2364,  -10.8725452,  -8.96604156
   2365,  -1.53475761,   12.0588131
   2366,  -6.76669073,  -11.0203199
   2367,  -4.14171362,  -11.5341377
   2368,   -3.9687891,   11.2551012
   2369,  -1.65415454,  -12.2798758
   2370,    1.6892463,  -12.1395559
   2371, -0.444571316,    11.667861
   2372,  -2.89264083,   12.0208368
   2373, 0.0287713502,  -11.9275846
   2374,    3.4935472,  -11.9934607
   2375,    3.3335917,   10.9397306
   2376,  -6.21787357,  -10.8055134
   2377, -0.790695071,  -12.0927944
   2378,   0.71810472,  -12.0684929
   2379,   8.41291237,  -11.6422796
   2380,   10.1300135,   5.10114622
   2381,  -9.04762459,   8.19230747
   2382,   9.15539837,  -11.0638523
   2383,   5.90890741,   9.16745567
   2384,  0.774714351,   11.3866396
   2385,   6.19276237,  -11.3224039
   2386,  -6.85444975,   10.6133423
   2387,  -7.73795938,  -11.2841034
   2388,   12.1350164,  -7.28013611
   2389,  -8.69562244,   9.68973827
   2390,  -14.0383015,   2.41135454
   2391,  -7.89105034,   9.89057159
   2392,  -8.50484371,  -11.4969473
   2393,  -5.52508974,   -34.667244
   2394,  -13.0458298,  -34.7727776
   2395,  -23.8630886,  -34.8101501
   2396,  -12.8423424,  -4.62967777
   2397,   11.3913546,   4.89447069
   2398,    16.002758,   -34.852932
   2399,   9.16975212,   -34.877018
   2400,   21.2704258,  -34.6643906
   2401,   2.93287373,  -34.7289505
   2402,   13.9573479,  -5.12244606
   2403,  -13.5898294,  0.813644052
   2404,   12.9602995,  -3.28902745
   2405,   13.8515291,  -4.45860767
   2406,  -12.5504684,    3.8752358
   2407,   12.5064869,  -1.01405537
   2408,     13.66852,   -2.5317955
   2409,  -13.9715548,  -3.11005211
   2410,   9.36099529,   6.63911486
   2411,  -14.4170303,  -2.06005478
   2412,   7.35280514,   8.05066013
   2413,    8.2002058,   7.83783436
   2414,  -14.1612473,  -1.15250194
   2415,   4.97574711,  -11.3328018
   2416,  -13.1763086,   4.42828655
   2417,   13.2912512,  -6.01385355
   2418,  -3.40275812,  -12.6408758
   2419,  -13.5172777,   -5.2760334
   2420,   13.6708803,   2.63148475
   2421,   -9.9408989,   5.45351982
   2422,  -13.2947865,  -2.79264235
   2423,   3.63431787,   10.4314852
   2424,   1.60780978,   11.3164539
   2425,   16.7195911,  -33.9490128
   2426,    8.3083353,  -33.9273643
   2427,   21.1761227,  -33.8646011
   2428,   3.89067125,  -33.8821411
   2429,   28.9283791,  -33.9122887
   2430,   33.6269455,  -33.8876877
   2431,  -6.17986107,  -33.5013351
   2432,  -12.3033504,  -33.7874947
   2433,  -24.7922916,  -34.8176765
   2434,   27.0096169,  -34.5882874
   2435,   35.5947266,  -34.6320229
   2436,   6.77383757,  -11.8401117
   2437,   6.42810011,   9.02295113
   2438,  -3.73527455,   11.8319397
   2439,   9.03708172,  -11.8408689
   2440,   1.26277232,  -12.4830017
   2441,   -1.4817332,  -13.2961426
   2442,   12.9703836,  -2.61406302
   2443,   6.62550688,   8.43785763
   2444,   10.7620773,   5.61788845
   2445,   -6.4509778,  -9.88404942
   2446,  -14.7761269,  -1.59040713
   2447,  -5.22074461,    11.046855
   2448,   4.14310169,   11.3885183
   2449,  -2.57964325,   12.4245939
   2450,   5.60056591,  -11.3288412
   2451,   2.35420251,    -11.55797
   2452,   12.8049107,  -6.97217846
   2453,  0.374863952,   12.1849222
   2454,   7.78979683,  -12.1785059
   2455,   2.81288719,   11.4436455
   2456,  -7.50017214,    10.567688
   2457,  -9.75823212,   8.31210518
   2458,  -5.39499235,  -11.2217932
   2459,   11.8461123,  -8.26014233
   2460,   10.7180719,  -9.30589771
   2461,  -10.1348915,  -11.1173134
   2462,  -6.96624327,   11.2679644
   2463,  -11.1409645,  -8.31255245
   2464,   2.65555024,  -12.2232866
   2465,   11.5286636,  -7.58400965
   2466,   14.7860136,   -4.9022398
   2467,  -1.10787821,   -12.678668
   2468,  -9.65887451,   9.14642811
   2469,   9.79776859,   -11.504426
   2470,   13.6967478,  -3.18496418
   2471,   7.52030849,   8.54738808
   2472,   13.7704296,  -3.80977225
   2473,    13.545867,  -6.68949032
   2474,  -14.1738491,  -2.56405163
   2475,   14.2616062,   -2.5143373
   2476,  -13.8434267, -0.192969486
   2477,   13.8845358,  -1.02280974
   2478,  -13.1424856,  0.249318331
   2479,   -14.100399,   1.37411952
   2480,  -13.6161394,   3.93656754
   2481,   7.25751781,   -11.598732
   2482,   1.55218577,   12.9773579
   2483,  -13.4352846,  -6.67691565
   2484,   10.1566687,   7.12749386
   2485,  -9.85757542,   6.09983158
   2486,   12.2348337,   4.50115871
   2487,   9.00950718,   8.26932144
   2488,   13.3528013,   1.93536425
   2489,  -9.21780777,  -11.7002811
   2490,  -9.38442326,   9.97305679
   2491,  -14.1990299,   4.47279358
   2492,   15.2194166,  -35.7261124
   2493,   9.87731838,  -35.6583214
   2494,   22.1897411,   -35.516407
   2495,   2.89943075,  -35.6696129
   2496,  -6.96320629,  -11.6173859
   2497,  -4.83023882,  -35.6897507
   2498,  -2.52355099,  -12.4870453
   2499,  -13.9226561,  -35.6784744
   2500,   17.4876709,   -34.029026
   2501,   7.41879988,  -33.8946037
   2502,   20.5234909,  -33.8275757
   2503,   4.74261379,  -33.8779144
   2504,    29.820734,  -33.9526558
   2505,   32.6255379,  -33.8752327
   2506,   26.0819092,  -34.4659233
   2507,   28.0518494,  -33.7575493
   2508,  -7.08035088,  -33.4094505
   2509,  -11.5596523,   -33.753849
   2510,  -25.7734985,  -33.9580803
   2511,  -7.36451817,   9.88412189
   2512,  -4.97035551,  -12.1203279
   2513,  -23.8813953,  -33.9024391
   2514,  -13.0779772,  -33.8306885
   2515,  -5.10951519,  -33.5911942
   2516,  0.420152754,  -12.6993742
   2517,  -11.4338055,  -7.66021442
   2518,   19.6115341,   8.36822891
   2519,   18.9676132,   17.4963207
   2520,   22.0179787,   10.2903519
   2521, -0.817331433,  -13.7834253
   2522,  -9.92075157,  -11.9078817
   2523,   1.01557887,  -12.9623566
   2524,  -5.90670156,    11.608696
   2525,   9.69943142,  -12.1238356
   2526,   6.20452356,  -11.9557123
   2527,   -14.283843,  0.352440745
   2528,   7.16274548,   8.93629646
   2529,   13.1306057,  -7.62505913
   2530,  -12.1180429,  -8.08441067
   2531,  -14.8095751,  -2.84828281
   2532,   14.5691357,  -3.60544968
   2533,  -2.46835661,  -13.4698505
   2534,  -2.91552329,   12.9202328
   2535,   8.33127117,  -12.3382511
   2536,  -2.94701695,  -13.0632381
   2537,   14.4364719,  -3.00048876
   2538, -0.172551364,   12.3428373
   2539,  -3.46735334,   12.5691338
   2540,  -6.17143631,  -11.2469749
   2541,   7.36212635,  -12.0991278
   2542,   3.38942599,   11.9435425
   2543,  -10.5956078,     9.367486
   2544,  -6.44298887,   11.4113569
   2545,    12.492691,  -7.93071175
   2546,  -14.6092319,   2.97693944
   2547,   11.7668314,  -9.26764107
   2548,  -8.17265415,   11.4035616
   2549,   10.2596598,  -6.66488314
   2550,  -11.5405941,  -9.30702305
   2551,  -9.79467583,     7.514153
   2552,  -10.8116169,  -11.3567133
   2553,   7.71408463,   9.32311821
   2554,   -14.775034,  0.900281191
   2555,   14.3193789,  -6.43380785
   2556,  0.173135027,  -13.2735519
   2557,   10.2825222,  -10.5422859
   2558,   12.1280518,   5.91891146
   2559,  -15.1354265,  -1.98168886
   2560,  -5.01805067,  -12.5057249
   2561,   19.6641064,   18.0867481
   2562,   1.59907734,  -13.1270037
   2563,  -9.06285858,   10.8029003
   2564,  -13.7201309,  -5.84277964
   2565,  -12.8731623,  -7.01355743
   2566,  -10.5917864,   5.58882952
   2567,   13.9749298, -0.190553203
   2568,   3.22224927,   12.8669538
   2569,  -10.9919977,  -6.60319281
   2570,  -7.64581871,  -12.3405571
   2571,   8.72728348,    9.0134573
   2572,  -12.7599545,   4.89645004
   2573,   12.4998226,   3.63555026
   2574,   11.3805466,  -9.75327301
   2575,   13.8243179,   3.96954441
   2576,   12.7389536,   1.77461505
   2577,   14.0604486,   2.17632747
   2578,   13.7773705,   3.19787908
   2579,  -25.9677925,  -33.0562325
   2580,   -11.553504,  -32.9458504
   2581,  -7.08784771,  -32.4550285
   2582,   20.0940018,   7.60606384
   2583,   11.3138552,   6.28978968
   2584,   15.6070662,  -4.68589354
   2585,  -10.1183844,   10.2840567
   2586,   10.8145638,   7.22823191
   2587,   18.0277615,  -34.7720528
   2588,   6.55766535,  -34.8215752
   2589,   18.8510361,  -34.6856689
   2590,   5.65523243,  -34.8173447
   2591,    30.713438,  -34.8093338
   2592,   26.2447319,  -33.3308296
   2593,   26.0073719,  -35.5274277
   2594,   31.6604042,  -34.7859268
   2595,  -7.92995548,  -34.2259331
   2596,  -10.6309967,  -34.4096069
   2597,  -4.12102175,  -34.4424515
   2598,  -26.6190739,  -34.1092377
   2599,  -22.9420757,   -34.831192
   2600,   32.6642456,  -32.9591713
   2601,   -5.6455307,  -12.3598175
   2602,  -9.81790447,   6.78221273
   2603,   30.6920567,   -33.070755
   2604,   5.59666777,  -32.9080734
   2605,   14.6991072, -0.987786233
   2606,   19.5613556,   -33.105278
   2607,   7.41443014,  -32.9477158
   2608,   17.6200504,  -33.2248917
   2609,   5.92214823,   10.6224012
   2610,   22.8874226,   9.56495285
   2611,   6.97408772,  -12.5293684
   2612,   5.58456898,  -12.0078182
   2613,   10.9023495,  -10.9136171
   2614,   -15.505106,  0.392998248
   2615,   3.55817962,   13.2465696
   2616,   5.94523287,   11.2979155
   2617,  -5.57461119,  -13.0038605
   2618,  -6.95979214,  -12.3839531
   2619,  -10.5205231,   6.84280634
   2620,   8.93574238,  -12.5725927
   2621, -0.693699479,   13.0232811
   2622, -0.499099463,  -13.0368261
   2623,   4.93695402,  -12.0373077
   2624,   7.28079462,   9.85089207
   2625,  -3.88121033,  -13.1480284
   2626,   15.1421165,  -2.65529418
   2627,  -5.25397205,   11.8171692
   2628,  0.944489658,   11.9826517
   2629,  -2.48204899,   13.6781368
   2630,   13.4882584,   1.29986858
   2631,  -9.10097599,   7.43929195
   2632,   12.7110453,   5.14796495
   2633,   13.4858379,  -8.25559711
   2634,  -4.78395557,  -13.2183647
   2635,  -11.8201694,  -8.69070435
   2636,   12.3010635,  -8.89467144
   2637,  -7.54090357,   11.2802048
   2638,   12.8883514,   1.04606211
   2639,   2.82515216,   13.3584852
   2640,  -11.2757254,  -9.94662285
   2641,  -15.6280518,  -2.58336377
   2642,   15.5167418,  -4.00907755
   2643,  -9.75985718,   11.1063948
   2644,   13.8328924,  -7.33677006
   2645,   1.51872349,  -13.6657324
   2646,  -15.1784182,   2.51488543
   2647,  -3.42551136,  -13.6279421
   2648,  -13.4210443,  -7.56876612
   2649,  -12.1964893,  -6.24514294
   2650,  -13.9205618,  -4.77807474
   2651,  -14.4380302,  -7.00043535
   2652,  -15.3873444,  -1.18888783
   2653,  -15.2795601,    1.4625107
   2654,   13.7679358,  0.735239685
   2655,    12.446394, -0.427437425
   2656,  -3.66164708,   13.4079018
   2657,  -11.2387953,   -5.8875494
   2658,  -11.8843689,   4.83076096
   2659,  -13.7511978,   4.98665333
   2660,   -11.218318,   5.65166664
   2661,    14.395319,   2.97648048
   2662,   9.77992058,   8.62067223
   2663,    14.927619,  -5.55004358
   2664,   -8.8399744,   11.6852713
   2665,   13.9656439,   1.53542507
   2666,   12.2918644,  -9.83000946
   2667,   8.35998344,   9.74304676
   2668,   15.5813227,  -1.62723958
   2669,   10.0186825,   7.87655544
   2670,  -2.95849156,  -34.3864136
   2671,  -14.5711918, -0.651854634
   2672,   17.7502422,  -35.5981178
   2673,   5.69046116,  -35.7354469
   2674,   30.7310829,  -35.6946602
   2675,  -11.5191269,   8.95277119
   2676,   11.5404778,   7.17116833
   2677,  -6.25370789,  -31.5194759
   2678,  -11.9675865,  -31.9310398
   2679,   23.5769215,   9.02888012
   2680,   27.4955273,  -32.3807335
   2681,  -24.8989334,  -32.7335434
   2682,  -1.96278656,  -13.9033079
   2683,   19.6021862,   16.6876278
   2684,   19.8012085,   19.4511852
   2685,  0.666906536,  -14.0461054
   2686,   8.35291386,  -32.0242615
   2687,   17.0608177,   -32.123745
   2688,   20.4405632,  -32.2862129
   2689,   4.65747166,  -31.9197845
   2690,   21.2425842,   6.88948298
   2691,   29.8163662,  -32.2290039
   2692,   32.9006119,  -31.7974796
   2693,   12.7995214,  -9.51257992
   2694,   4.91945553,  -12.7851467
   2695,   7.29740572,   10.8428497
   2696,   5.59519243,  -12.7198181
   2697,   1.27458155,   13.4101362
   2698,    9.6336298,  -12.8915997
   2699,  -14.8413858,  -7.63440037
   2700,   -15.804122,   2.05586267
   2701,   10.3153877,   9.76875877
   2702,  -15.9967909,  0.967392087
   2703,   4.07564449,   13.8764658
   2704,  -1.13809991,   12.4297132
   2705,  -4.30411339,   12.0701685
   2706,   6.26897001,  -12.6306982
   2707,   8.77757263,  -13.2658291
   2708,    10.593545,  -11.4208498
   2709,  -1.22156453,   12.8222895
   2710,   14.5686359,  -7.07354116
   2711,  -6.81771898,  -13.1541367
   2712,    14.148181,  -7.96431732
   2713,   14.7359734,   1.76682067
   2714,   2.21159291,  -13.6569576
   2715,  -5.33132076,  -13.5822058
   2716,  -15.4657364,  -3.10491943
   2717,  -15.6441727,  -1.93011355
   2718,   6.76355505,   9.41727638
   2719,  -4.22093153,   13.2752056
   2720,   1.94406438,   13.6753578
   2721,  -14.0843353,  -5.16366577
   2722,   -9.5094738,   11.9304972
   2723,   15.3978195,  -3.32041621
   2724,   9.09525394,   10.1984262
   2725,    14.121172,  -5.77324772
   2726,   -11.926177,  -10.2652941
   2727,  -10.6171179,  -9.64712524
   2728,  -7.96662569,   12.1782284
   2729,  -3.09620285,   13.6019478
   2730,   11.1564798,  -10.3388596
   2731,  -12.4574766,  -7.50818968
   2732,   15.0715952,   2.61483645
   2733,  -13.0824366,  -8.01379013
   2734,  -13.4588861,  -4.70931339
   2735,  -11.2149057,   5.11429644
   2736,  -11.2652845,   6.87107992
   2737,   15.8794737,  -5.96974087
   2738,   -15.172204,   3.53801107
   2739,  -16.3704777,  -1.21548045
   2740,   6.65749407,   11.1748323
   2741,  -13.2890711,   5.49693298
   2742,    16.506031,  -5.14860296
   2743,  -11.2906246,   8.24399185
   2744,  -11.2973938,   10.0803251
   2745,  -6.67160034,   12.0390425
   2746,   16.4315662,  -4.51458645
   2747,   15.4806719, -0.847351134
   2748,   9.48305607,   9.40096092
   2749,  -7.49319363,  -13.1940746
   2750,   3.51906443,  -12.7639952
   2751,   5.13892698,   11.3472748
   2752,   15.9344835,  -2.27012324
   2753,  -4.38624907,   -13.676116
   2754,  -10.4424343,   11.4470243
   2755,  -2.91348243,  -35.4485855
   2756,   9.27848053,  -32.0958939
   2757,   7.43254423,  -31.9871292
   2758,   17.8492889,  -32.4071045
   2759,   16.2207108,   -32.391201
   2760,   21.8167725,  -32.7368813
   2761,   19.6862831,   -32.029911
   2762,    26.539957,  -32.2527275
   2763,   28.2247009,  -31.8678684
   2764,   5.59745216,  -31.9477921
   2765,   3.22780681,  -33.1010208
   2766,  -21.9256954,  -35.6837959
   2767,  -12.3235874,   5.30204773
   2768,   7.51554966,  -35.7523727
   2769,   19.5449047,  -35.1752205
   2770,   -5.3177948,  -32.3978386
   2771,  -7.12607956,  -31.5287609
   2772,  -13.1659555,  -32.7351723
   2773,  -11.2394886,  -32.2280807
   2774,  -23.8059158,  -33.0576096
   2775,  -26.4286461,  -32.2259102
   2776,   32.4063721,  -31.4292431
   2777,   19.2564869,   20.0006466
   2778,  -16.3261452, -0.302557737
   2779,   24.2206573,    9.6064949
   2780,   22.2259541,     7.840446
   2781,   20.4253788,   6.77997589
   2782,   20.3032742,   17.2793446
   2783,   22.4030113,   8.76466465
   2784,   7.80353022,   17.8966656
   2785,    22.211319,   12.4439774
   2786,   17.3204613,   8.16337299
   2787,   21.7556553,   13.8283167
   2788,   8.65558338,   15.9156027
   2789,   15.0977516,   9.01716995
   2790,   9.10351467,   15.0553169
   2791,   14.2926874,   9.65470123
   2792,   9.48350048,   13.9726744
   2793,   20.1795101,   15.8548393
   2794,   13.3964796,   10.1295233
   2795,    10.979702,   12.4412861
   2796,   11.6130047,   11.5963087
   2797,   2.19142246,   -13.062788
   2798,   7.61249638,  -12.8012409
   2799,    4.8931222,  -13.6939049
   2800,   3.50244546,  -13.4326019
   2801,     6.297616,  -13.3265638
   2802,   7.46733189,  -13.4499035
   2803,  -13.4813366,  -8.96510506
   2804,   12.3333721,   7.05234861
   2805,  -8.17514133,  -13.2674999
   2806,   -3.2634151,   14.4232769
   2807,  -16.3619881,  -2.78230095
   2808,   -12.003953,   6.18331385
   2809,   5.64614296,  -13.4638052
   2810,   16.3919754,  -3.82181168
   2811,  -15.2470093,  -8.29155064
   2812,    13.309041,   6.93262529
   2813,   11.5132637,  -11.3510771
   2814,  -1.81477833,   13.6320763
   2815,  -11.2041044,   7.53035307
   2816,  -3.90322423,   14.0788155
   2817,    10.517518,  -13.2297134
   2818,  -4.56911325,   12.7044897
   2819,  -6.49642324,   12.9369469
   2820,   17.2443771,  -5.01386642
   2821,   2.57863855,   13.9432802
   2822,  -11.9617233,   9.59192848
   2823,   4.78041649,   13.0961037
   2824,   14.4709454,  -8.56453323
   2825,   19.6843166,   6.01224995
   2826,  -4.96969414,  -14.1383924
   2827,  -11.6770086,  -10.8956299
   2828,  -15.0181351,  -6.73716688
   2829,  -15.7247715,   3.09659863
   2830,   1.37432146,  -14.3365211
   2831,  -13.7229862,  -8.43275833
   2832,   19.5441418,   20.7146397
   2833,   7.70187235,   11.4917431
   2834,   6.10706377,   11.9838619
   2835,  -12.3030844,   8.59380627
   2836,   15.3137894,  -6.82507038
   2837,  -3.49933386,  -14.6980391
   2838,  -9.37200546,   12.7852468
   2839,   16.3823013,  -2.98228049
   2840,  -14.3234558,   5.48067999
   2841,    2.8583703,  -13.5629272
   2842,  0.892452419,   14.0056372
   2843,   14.3133764,   1.19489849
   2844,   2.92858934,  -14.3086119
   2845,  -11.9228354,   10.6527309
   2846,   11.4624643,   9.11128807
   2847,   16.1856213,  -1.36571848
   2848,   11.0947723,  -12.0396137
   2849,  -16.4868546,   1.59881163
   2850,  -14.8557148,  -5.41487885
   2851,  -5.94962072,  -13.8192844
   2852,   9.43861294,  -13.6118765
   2853,  -1.01117218,  -14.9052992
   2854,  -7.10164976,     12.64291
   2855,   6.73239803,   18.2269745
   2856,   13.2853327,  -10.1539812
   2857,   18.0897083,   6.81301355
   2858,   6.50872755,  -32.9237709
   2859,   9.22682476,  -33.0623512
   2860,    18.691452,  -32.7187767
   2861,   15.8314133,  -33.1630554
   2862,   16.3609905,  -31.8385353
   2863,   21.5696964,  -33.1990128
   2864,   3.61400032,  -31.8891735
   2865,   26.7533474,  -31.4370575
   2866,   29.1855545,  -32.4731522
   2867,   15.5650091,  -7.45181465
   2868,    20.685463,   15.0365019
   2869,   31.5995541,  -33.0900078
   2870,  -7.98673487,  -32.4279022
   2871,   -11.041523,  -33.0641518
   2872,  -12.7376595,  -31.6651421
   2873,   34.6197739,  -33.8245735
   2874,  -27.1819477,  -32.7145157
   2875,    19.326458,   7.13564634
   2876,   22.1898403,   6.82645082
   2877, -0.947690248,   13.5146303
   2878,   24.5895138,   9.02437019
   2879,   23.2015438,   11.4270287
   2880,   10.3104029,   11.8442717
   2881,   4.15633297,  -13.4946222
   2882,    22.075098,    11.473793
   2883,   10.3134441,   13.2203465
   2884,   21.0479374,   17.9158401
   2885,  -16.7813206,  0.465912402
   2886,   6.85727262,  -13.9393148
   2887,   4.37830973,  -14.4284344
   2888,    16.302803,  -7.17981863
   2889,  -12.6736937,   9.18392754
   2890,  -15.7953129,  -8.86366844
   2891,   13.7081108,  -10.8280306
   2892,  -12.2880468,  -11.1519928
   2893,   13.3384275,  -9.19321156
   2894,  -15.8186779,  -5.39402771
   2895,  -8.82869244,   13.7027836
   2896,   14.6578341,  0.648913085
   2897,  -10.1986389,   12.1857052
   2898,   10.1564131,  -14.0427494
   2899,   16.2104626, -0.748125196
   2900,   11.5594959,   8.11146355
   2901,  -5.67669249,   12.5190182
   2902,   5.29056549,  -14.4279547
   2903,  -17.2160015,   1.16491544
   2904,  -4.45330095,   13.8386621
   2905,  -4.74500561,   13.1164503
   2906,  0.277763277,   14.5110292
   2907,  -8.87119102,  -13.3783741
   2908,  -12.1730547,   6.94262505
   2909,  -5.96504021,   13.1021023
   2910,   -15.707696,   4.08932686
   2911,  -12.4954557,  -9.09837914
   2912,  -3.95561028,  -14.1800413
   2913,   2.09466076,  -14.9280109
   2914,  -8.84129143,  -32.5266762
   2915,  -10.2509966,  -33.3083191
   2916,  -16.1974964,  -3.59295774
   2917,  -3.02404976,   15.1393499
   2918,   3.19935322,   14.2014341
   2919,  -11.6436987,   5.17019558
   2920,  -1.45773077,  -14.3768377
   2921, -0.517692029,  -15.4327059
   2922,    11.226615,  -12.8960123
   2923,   8.57305622,  -13.9401855
   2924,  -27.7459526,  -32.1816216
   2925,  -17.1794853,  -2.93335891
   2926,  -5.64775562,  -14.6494579
   2927,  -6.63292217,  -13.9131889
   2928,    16.943655, -0.820147216
   2929,  -12.4868574,   10.1776781
   2930,   3.47025514,  -13.9550476
   2931,  -8.22556305,   13.9200573
   2932,   5.29870367,   12.1185894
   2933,  -15.4075489,  -7.35068464
   2934, -0.448577672,   14.0974464
   2935,  -12.0307713,   8.00103855
   2936,  -11.1366529,   11.8325186
   2937,    4.9875474,   14.0966339
   2938,  -13.9153872,   6.19177723
   2939,   14.7361174,  -9.07726574
   2940,   15.0055428,  -32.4301987
   2941,  -1.29362249,   13.8027468
   2942,   2.78273296,  -32.6063881
   2943,  -15.0444298,  -4.67039347
   2944,   16.9086456,  -2.34762526
   2945,   15.8638077,  -8.08476067
   2946,   15.6632271,  -30.9975204
   2947,   17.8314152,  -4.97773266
   2948,   2.76889181,   -31.299242
   2949,   25.7676811,  -31.8676662
   2950,   1.60361123,  -14.8495398
   2951,  -13.9497404,  -32.1520348
   2952,   26.2316742,  -30.7641811
   2953,   6.89658785,  -13.3128757
   2954,   -13.098114,  -30.4275608
   2955,   21.2803268,   4.83730745
   2956,  -7.32603884,  -13.9682102
   2957,   29.0650978,  -33.1088104
   2958,   20.5684261,   20.3353596
   2959,  -14.2193298,  -9.37444496
   2960,  0.853744268,  -14.9163885
   2961,   7.08978605,    19.080164
   2962,   17.1847725,   7.11873341
   2963,   9.33247471,   11.9528561
   2964,   24.5021763,   11.0648012
   2965,   22.4008255,    16.132021
   2966,  -3.00250173,  -15.1371708
   2967,  -8.02372456,  -14.0635624
   2968,  -12.6802692,   7.61793566
   2969,  -4.12114191,  -15.3464422
   2970,  -16.6022434,  -5.26323795
   2971,   3.88947272,  -14.1571302
   2972,  -5.24778366,   14.1313543
   2973,  -15.2521353,   5.38101149
   2974,   9.17390251,  -14.3001671
   2975,   2.63786483,  -15.0549574
   2976,   -6.1177659,   13.5893126
   2977,  0.764991939,   14.9342842
   2978,  -10.0582962,   12.9181175
   2979,   13.0456657,  -11.0443077
   2980, -0.977408946,  -15.9251251
   2981,   8.01647282,  -13.6710596
   2982,  -2.87784266,   15.7333755
   2983,  -11.4848146,  -11.5847778
   2984,  -7.31880522,   13.4573984
   2985,  -10.5005455,    7.5575366
   2986,  -9.02892399,  -12.5456514
   2987,  -8.72026825,  -14.1930628
   2988,   1.31251884,  -15.2894754
   2989,  -15.3233452,  -9.30892467
   2990,   3.40503383,    13.682703
   2991,  -15.6863546,  -4.57760811
   2992,  -15.8080568,   -7.9363265
   2993,   -13.878417,  -9.99966908
   2994,  -1.53452086,   15.4100676
   2995,  -12.1204853,   11.6701078
   2996,  -17.6564331,   1.83671045
   2997,  -15.4300432,  -3.93087482
   2998,   -15.986639,  -7.05245543
   2999,  -14.6682529,   3.99210358
   3000,   13.8849812,  -9.85011292
   3001,   5.83064985,   13.7391586
   3002,  -17.2363701,  -2.16308951
   3003,  -9.02332878,   14.5266724
   3004,    11.267663,  -13.9949179
   3005,    11.803627,  -12.2746363
   3006,  -13.3731604,   8.81679726
   3007,   17.3650532,  -5.59141636
   3008,   -14.187438,   -4.4569211
   3009,  -14.2416277,   6.98796368
   3010,   21.2016582,   19.4244843
   3011,    10.760334,   8.04111576
   3012,   15.3892241,   1.11503255
   3013,    14.095746,   7.22574854
   3014,   25.8988781,   11.2756577
   3015,   -9.2782383,  -33.7167664
   3016,   16.5062618,    -30.35182
   3017,   4.08943892,  -29.9126682
   3018,  -27.0465183,   -31.390564
   3019,  -27.7867088,  -33.2711296
   3020,   27.2232418,   -30.439085
   3021,  -5.20574808,   12.8305359
   3022,   22.1672668,   5.78907824
   3023,   20.4308395,   4.92067528
   3024,  -17.1352139,  -3.68151069
   3025,   2.37787509,  -15.7082396
   3026,   9.05296993,   12.9019918
   3027,   9.56186295,   11.3471127
   3028,   8.35568333,   19.7761993
   3029,   7.33869791,  -14.0859985
   3030,   22.2522793,   14.8753614
   3031,  -7.17649651,  -14.6857719
   3032,   16.9817257, 0.0156707857
   3033,   10.8051462,   11.0497389
   3034,   9.34060287,   7.61584997
   3035,  -5.47081327,   13.3536158
   3036, -0.741656184,   15.0520267
   3037,  -17.1926498,  -4.45354748
   3038,   3.86020279,   14.4726477
   3039,   7.14386082,  -14.6615095
   3040,  -10.9054451,   12.5000648
   3041,  -17.6514397, 0.0875920728
   3042,  -9.61243248,   14.4349566
   3043,   7.16436911,   12.4945946
   3044,  0.434421808,  -15.4242554
   3045,   16.9758682,  0.809441447
   3046,   1.56594205,  -16.1864185
   3047,  -28.3932514,  -31.7400951
   3048,   -9.4265089,   -14.332613
   3049,  -12.8668337,  -10.0901127
   3050,  -14.9301939,  -9.85526085
   3051,  -17.9878349,   0.78360486
   3052,  -16.2584438,  -8.45915031
   3053,   3.00208592,  -16.1706886
   3054,  -16.5342979,  -6.76795197
   3055, -0.428630918,  -16.4151688
   3056,  -3.62639403,   15.4186029
   3057,  -7.85887194,  -14.8118925
   3058,  -4.59661531,   15.0506029
   3059,   12.4890108,  -11.3424768
   3060,   13.9130898,   -11.494627
   3061,     11.70926,   -13.505578
   3062,  -7.60750437,   14.1917906
   3063,  -9.73987007,   -12.711154
   3064,  -27.8921967,  -31.1882858
   3065,   -9.1972456,  -31.3643742
   3066,  -9.58237457,  -13.5190382
   3067,  -12.1546316,  -11.7828388
   3068,  -16.8258781,  -5.96927166
   3069,  -15.6474514,   5.72659302
   3070,   -11.816349,   12.2378531
   3071,   16.6427746,  -5.76539803
   3072,  -14.7443571,   4.95623207
   3073,  -13.7749262,    9.3793211
   3074,  -17.4524059,   2.87947822
   3075,  -5.68737555,   -15.538763
   3076,  -2.93531919,  -16.1710072
   3077,   14.7316103, -0.130282208
   3078,  -15.1615152,   6.77845907
   3079,  -13.4278097,   7.26431847
   3080,  -17.2965527,  -1.38802052
   3081,   5.67548418,    14.910737
   3082,   18.0268574,  -5.41401434
   3083,  -15.9961472,    -9.790411
   3084,   1.73311806,   14.2905712
   3085,   3.58306527,  -15.6966438
   3086,   0.50880152,   15.2725554
   3087,   15.4664736, 0.0215157028
   3088,   4.37001324,  -15.3352985
   3089,  -18.0316391,  -3.10343409
   3090,  -13.7463379,   7.89812899
   3091,  -7.12373781,  -15.2734289
   3092,   11.9673491,   -14.483654
   3093,   17.7568874, -0.876827359
   3094,   7.35859871,   19.9785995
   3095,   23.4013081,   7.70941353
   3096,  -7.00230122,   14.5008965
   3097,   15.6804457,  -29.5164719
   3098,   17.3063717,  -30.4713268
   3099,   2.40074754,  -30.1074448
   3100,    4.8521924,  -30.0665665
   3101,  -2.96307063,  -14.0782738
   3102,   26.2321396,  -29.5956917
   3103,   28.3111134,  -31.0979061
   3104,  -14.6543741,  -3.37107205
   3105,  -8.90303802,   -34.492157
   3106,  -11.5321035,  -31.1025352
   3107,  -12.7273865,  -29.6020985
   3108,   21.8084297,    18.606514
   3109,   19.5738258,   5.16644764
   3110,   8.59316826,   11.0699482
   3111,   26.1149902,   10.3507338
   3112,  -28.3761883,  -32.8716431
   3113,  -27.4085426,  -34.1667061
   3114,   22.1623783,   4.77215338
   3115,   -2.2453196,   15.6096773
   3116,  -2.48683619,  -15.5566826
   3117,  -10.0664024,   13.6545782
   3118,   23.4336109,    15.760231
   3119,  -4.85673141,  -16.1655407
   3120,  -15.2108679,  -3.46652699
   3121,   17.7387981,  -6.68032217
   3122,  -7.86838293,  -16.4221516
   3123,  -13.5316296,  -10.5899744
   3124,  -17.0300541,  -8.51021671
   3125,   1.56742728,   14.8929901
   3126,    12.888176,  -11.8141251
   3127,  -29.0003452,  -32.4207573
   3128,   3.59640384,   14.9937916
   3129, 0.0164168943,   15.8053646
   3130,   12.0841417,  -11.7751169
   3131,   7.82361507,  -14.3275948
   3132,  -15.6988831,   5.00701666
   3133,  -5.52176523,   14.6427832
   3134,  -16.1179562,   6.98567009
   3135,  -4.25972319,   15.2393103
   3136,  -1.42186689,  -16.4601898
   3137,   4.06277084,  -15.7204266
   3138,   -2.7831707,   16.2179108
   3139,  -14.0651522,   8.48124123
   3140,  -9.76077747,   15.1914454
   3141,  -17.9657192,  -3.80255508
   3142,  -17.4091511, -0.626637936
   3143,  -9.25642967,  -15.1882982
   3144,   13.3408718,  -11.5981379
   3145,   -11.573678,   12.8639698
   3146,  -12.7554998,   12.1085491
   3147,   6.60930252,   13.4553642
   3148,   -12.072957,  -12.4721298
   3149,  -10.3160954,  -13.6717062
   3150,   11.6945782,  -15.2839212
   3151,  -14.4323082,   9.03737926
   3152,   -16.119791,   5.56139755
   3153,  -14.5006514,   7.62624407
   3154,   12.0858183,  -13.0725708
   3155,   17.8479748, 0.0687654465
   3156,  -15.2742395,   7.46560192
   3157,   13.9682913,  -12.1247883
   3158,  -1.38271868,   16.0437756
   3159,  -18.1087151,   2.48764014
   3160,  -17.3169346,  -5.21709204
   3161,  -18.1947231,  -1.62711895
   3162,   18.2316761,  -5.94510794
   3163,  -5.52620888,  -16.3076668
   3164,  -6.52850866,  -15.6390591
   3165,   2.68991494,  -17.0983105
   3166,   6.90801811,   11.7957811
   3167,  -16.4361401,  -9.34075451
   3168,  -16.3707619,  -7.59534311
   3169,   17.6910496,  -1.70958591
   3170,   8.72448826,   12.0493011
   3171,   17.0294495,  -6.91740417
   3172,  -8.82181263,  -30.1330795
   3173,    6.2816987,   15.6039505
   3174,  -27.1759415,  -30.3546467
   3175,   17.2248459,  -31.3121147
   3176,   17.3152103,  -29.5907001
   3177,   5.63806438,  -31.0058861
   3178,   25.3203316,  -30.4349842
   3179,  -13.8608732,  -30.0515366
   3180,   23.0797367,   5.67083454
   3181,   16.0753021,  -6.57965803
   3182,  -9.93181801,  -34.1016312
   3183,   17.7843323,   4.96109343
   3184,  -28.1665058,  -33.9883156
   3185,   22.1859055,   3.77282977
   3186,   25.4528217,    8.9758358
   3187,   27.0886116,   11.3568439
   3188,   22.6194038,   13.5423918
   3189,  -13.6020966,   10.3039865
   3190,   22.4517746,   17.8454132
   3191,   1.15724921,  -16.7834091
   3192,  -17.3169765,  -7.83026791
   3193,   5.15119076,  -15.4535599
   3194,   4.97173929,  -16.5287075
   3195,  -15.4611931,   8.03323555
   3196,  -18.1438465,  -5.90794277
   3197,   13.0156069,   -12.474267
   3198,   -3.4568758,   15.9624805
   3199,   17.5539112,  0.718716145
   3200,  0.750247657,   15.8077869
   3201,   24.2627163,  -30.9697952
   3202,  -5.70221806,   15.3243742
   3203,   18.8607521,   -5.7358942
   3204,  -17.9454098,  -4.50278282
   3205,  -12.0086412,  -13.2176504
   3206,   17.2788773,   -28.677845
   3207,   12.8492041,  -12.9030085
   3208,   2.26887608,   -17.665041
   3209,  -14.2668419,  -30.8779602
   3210,   3.25044012,  -16.6985435
   3211,  -9.18970203,   15.2750149
   3212,  -10.2659082,    14.385313
   3213,  -13.3370447,    12.500349
   3214,  -12.7911148,   -11.369503
   3215,   2.23640704,   15.3315363
   3216,  -4.27794361,   15.6988735
   3217,   -12.255023,   13.2180653
   3218,  -1.23295021,   16.7097359
   3219,  -0.86912781,   -16.940258
   3220,   17.5955486,  -2.44610476
   3221,   12.3161755,   -13.914669
   3222,  -17.5627747,  -8.46135235
   3223,   12.3766041,  -15.2220564
   3224,   10.4560404,  -15.2785702
   3225,  -18.8947639,  -3.33414364
   3226,   4.13301182,   15.4123478
   3227,  -16.2042847,   4.64578962
   3228,  -12.8644066,  -11.9106684
   3229,   15.5368519,   -11.036521
   3230,  -10.0135393,  -15.2809553
   3231,  -14.2326117,   9.92529774
   3232,  -18.3224792, -0.904350817
   3233,  -17.9348774,   3.50303459
   3234,  -16.6093864,  -10.1979456
   3235,   1.72829223,  -17.1963463
   3236,  0.569872737,  -16.3584118
   3237,    1.2299881,   15.3819761
   3238,  -4.64708519,  -16.8210144
   3239,   17.9465256,  -7.19792604
   3240,   7.42290926,   13.2333231
   3241,  -18.5682297,   3.12141228
   3242,  -13.5673809,   11.2236528
   3243,  -19.1656742,  -1.13861966
   3244,  -18.3714447,   1.45718741
   3245,   6.81905651,   15.1958923
   3246,  -29.6536045,  -33.2015305
   3247,  -18.1094685,  -2.37236142
   3248,   16.4740028,  -29.5071468
   3249,   18.1504421,  -29.7048664
   3250,  -5.18391562,    15.208744
   3251,  -10.1961508,  -30.7181149
   3252,  -7.55006266,  -29.6180153
   3253,   20.7546158,   2.81242299
   3254,  -28.2059422,  -30.4808006
   3255,  -26.3870106,   -30.370306
   3256,   17.8689232,   5.84187603
   3257,   25.8916035,   12.2216988
   3258,    -16.82831,   7.40537786
   3259,  -2.68327928,   17.0206013
   3260,  -9.83631802,   15.9355087
   3261,  -4.44825077,  -17.5637035
   3262,   19.5129185,  -1.80027258
   3263,   18.5164223,  -2.71612358
   3264,   3.50517774,  -17.2556839
   3265,  -5.57684517,   16.3157597
   3266,   13.4339428,  -13.0792198
   3267,  -18.7661438,  0.458453953
   3268,  0.949589133,   16.7348747
   3269,  0.703975379,  -17.3425293
   3270,  -18.2503891,  -8.27428627
   3271,  -17.2199612,   4.86295891
   3272,   16.3753624,  -28.6035595
   3273,  -18.6775341,  -5.22242355
   3274,  -3.27718544,  -16.7699337
   3275,  -11.3602381,   13.5394573
   3276,  -12.9409313,   13.5092869
   3277,  -1.22675562,   17.5421829
   3278,  -14.8715372,   9.56621647
   3279, -0.534885228,   16.5743046
   3280,  -4.67121792,   16.2222633
   3281,   25.9111958,   13.1664162
   3282,   13.2559729,  -13.6511831
   3283, -0.311011225,  -17.4138603
   3284,  -15.0420446,   8.72759533
   3285,  -8.08974171,   15.6258526
   3286,  -1.31024599,   -17.479248
   3287,   19.1039391,  -6.27634478
   3288,   9.81037807,  -14.7453909
   3289,   11.1332607,  -15.8855076
   3290,  -18.4152431,  -6.57595158
   3291,  -19.7980251,  -3.64843392
   3292,  -12.8778791,  -13.3398256
   3293,  -11.2155151,  -13.0618925
   3294,  -13.1304016,   12.9842043
   3295,   1.25820494,  -17.7921505
   3296,  -10.6896572,  -16.1219139
   3297,   15.3500652,  -11.7604942
   3298,  -5.26554775,  -17.0115662
   3299,   5.45037174,  -16.9898624
   3300,  -15.9357996,   7.45515347
   3301,  -13.5067215,  -12.5613461
   3302,  -9.91929913,  -16.1020355
   3303,    -16.24119,  -10.6656609
   3304,    5.1617341,   15.4364424
   3305,   19.5200958,  0.616235614
   3306,  -16.8327179,   3.27673817
   3307,   17.5699863,  -7.99269199
   3308,   18.0830193,  -3.77304792
   3309,  -17.6029053,  -9.22361946
   3310,  -19.2216377,   2.74086237
   3311,    17.161932,   1.57855833
   3312,  -19.8817463,  -2.04289627
   3313,  -2.03178954,   17.2613678
   3314,   18.5999165,  -0.93192029
   3315,   23.9788227,  -31.7406044
   3316,  -17.1240845,   6.81063366
   3317,   -15.422698,   -31.300148
   3318,  -14.6228676,  -29.6209908
   3319,    7.7414732,   14.4790411
   3320,  -7.10690212,   -30.688961
   3321,  -9.77249432,  -29.7585316
   3322,   20.3275814,    3.7768476
   3323,   21.4855995,   2.03121185
   3324,  -30.2415218,  -32.5675354
   3325,   -29.339365,  -34.5425911
   3326,  -26.0654373,  -31.0266151
   3327,  -28.2306709,  -29.5128918
   3328,   -14.097374,   11.7151403
   3329,  -2.26924348,  -17.5583229
   3330, -0.345899373,   17.2834377
   3331,  -3.88523316,    -17.35783
   3332,   9.44348049,  -15.4036703
   3333,  -17.8003063,   4.48879719
   3334,   19.5272789, -0.757274866
   3335,  -18.7494774,   -7.3136487
   3336,   8.87470055,  -14.9636288
   3337,  -2.38539052,  -16.5719662
   3338,  -13.9420509,  -13.3357458
   3339,  -13.5181217,    13.686964
   3340,  -15.8341532,  -29.9377327
   3341,  -16.0111885,   9.69385624
   3342,  -6.10909176,   15.8727245
   3343,   4.06211042,  -17.5716667
   3344,  -10.4246521,   15.9335899
   3345,  -5.02082205,  -17.7413921
   3346,  -1.91721261,   18.1788025
   3347,   4.66636372,   15.9740906
   3348,  -4.44067621,   17.0870419
   3349,  -7.28907251,   15.1855946
   3350,  -8.79766464,   16.0564671
   3351, -0.761814713,  -17.9464016
   3352,   10.0217028,  -15.9193678
   3353,  -12.0903111,   13.8890991
   3354,   1.81074631,  -18.2505875
   3355,   12.8023729,  -15.6473064
   3356,  -15.3904943,  -29.1237774
   3357,   14.1687269,  -13.0386152
   3358,  -13.8136663,   12.7834997
   3359,  -17.5848923,  -6.78648233
   3360,   16.3569221,   -11.404294
   3361,  -3.04682446,   17.8680439
   3362,  -11.9174557,  -14.0024147
   3363,  -10.9492731,  -14.6098423
   3364,  -9.04522514,  -16.2103519
   3365,  -13.7513285,  -11.8649597
   3366,   -16.325695,   2.66243219
   3367,  -19.5204163,  0.186563194
   3368,   19.4387665,  -5.53172207
   3369,   19.3059654,  -6.81575155
   3370,   16.5836124,  -7.76192951
   3371,   18.4995251,  -8.16915512
   3372,  -19.8561172,  -2.83250046
   3373,  -17.6492958,   7.75348377
   3374,  -17.6493015,   5.43001509
   3375,  -19.6709518,   3.36135292
   3376,  -19.9514351,  -1.31658638
   3377,  -15.9753685,  -11.1970701
   3378,  -16.8768482,  -11.0180149
   3379,   16.2325649,  0.958406985
   3380,  -18.4040813,  -8.92842197
   3381,   6.92127323,   14.1630507
   3382,  -11.0499601,   14.2776985
   3383,   16.2843666,  -27.6373787
   3384,   7.92991018,   15.3541279
   3385,  -27.6033993,  -28.4181976
   3386,    17.249342,  -27.7161007
   3387,    3.0441041,  -17.4719944
   3388,   23.4943962,   -30.613512
   3389,   24.6328545,  -32.2334099
   3390,  -19.5307407,   -4.3333025
   3391,   27.0291939,   13.2490196
   3392,   24.7820911,   13.2108269
   3393,  0.705802381,   17.6678715
   3394,  -16.1816254,  -30.8560677
   3395,   -14.687129,  -31.7194519
   3396,  -9.48174286,  -28.7046528
   3397,  -9.29773903,   15.9724674
   3398,  -29.5734158,  -31.8956966
   3399,  -30.4293919,  -34.1640091
   3400,    13.609972,  -14.5301456
   3401,   14.4954271,  -12.2792788
   3402,  -5.03383446,   16.7196083
   3403,  -6.21274471,  -16.5428486
   3404,  -18.2287006,    -9.874259
   3405,   9.06832504,  -16.0169525
   3406,  -6.69643831,   15.5005093
   3407,  -16.9580917,  -30.5127945
   3408,  -6.38362122,   14.9037304
   3409,   1.31960428,  -18.8440113
   3410,   22.6995792,  -30.3406162
   3411,  -19.1840019,  -9.54051113
   3412,   8.04359913,  -15.2799902
   3413,  -11.0831919,    15.178874
   3414,   26.9848862,   14.1059361
   3415,  -15.0150766,   -11.625845
   3416,  -4.17499638,  -18.3187084
   3417,   2.94147658,  -18.1342316
   3418,   -7.5301733,   15.8716078
   3419,   9.54102421,  -16.5554161
   3420,  -3.77173066,   17.4412308
   3421,    28.024353,   13.4926748
   3422,  -16.0435791,   8.71656227
   3423, -0.218376264,  -18.3983936
   3424,    0.7827124,  -18.3440342
   3425,   12.2745533,   -16.061018
   3426,  -13.6559868,  -14.3399115
   3427, -0.785368621,   18.2580395
   3428,  -2.62425804,   18.6147614
   3429,  -20.2418766,   -5.0557313
   3430,   13.9294462,  -13.8555889
   3431,   15.1621618,  -12.5318642
   3432,   15.4121609,  -26.5077744
   3433,  -20.0110664,  -7.89715767
   3434,   -13.874217,   13.3121357
   3435,   16.1245422,  -12.0814991
   3436,   16.6481419,  -10.7855234
   3437,  -20.7117062,   -2.9515872
   3438,  -9.40054321,  -17.1014881
   3439,  -13.1687174,   -11.075613
   3440,  -16.6560764,   5.23586178
   3441,  -17.7916508,   7.11250544
   3442,  -11.4170055,  -16.2747402
   3443,   3.39182067,    15.381156
   3444,   18.7731628,  -7.44921541
   3445,   17.9569664,  -8.53403282
   3446,  -19.7746086,   0.80809164
   3447,   13.2472668,  -15.1158018
   3448,   -20.336132,   2.93985724
   3449,   19.7561264,  -6.04390287
   3450,  -8.90333271,   16.5643768
   3451,  -20.6719131,  -1.42778778
   3452,   19.8858452,  -5.31615973
   3453,   1.38566935,   17.3277073
   3454,  -16.5627289,  -11.3624134
   3455,  -18.2397633,   5.08166647
   3456,  -17.7915211,  -10.5195847
   3457,  -16.7418175,  -11.8538132
   3458,   -3.6092658,  -17.9906559
   3459,  -14.9188375,  -28.3733368
   3460,  -29.5184746,  -30.7279949
   3461,  -14.1570072,   12.5361919
   3462,   15.1448326,  -27.5563049
   3463,   18.1112461,  -27.8044434
   3464,  -30.5123158,  -35.4061661
   3465,   23.6511841,  -29.7664795
   3466,   23.6878242,  -32.4455299
   3467,  -8.51341534,   -27.590971
   3468,  -15.8170853,  -32.1941948
   3469,  -26.9077168,  -27.9533234
   3470,  -31.5779705,  -34.4319611
   3471,  -6.97496462,   16.1151066
   3472,   12.3637381,  -17.1277313
   3473,   16.2455025,  -9.77830601
   3474,   20.1949768,  -7.31323195
   3475,  -5.98284578,   17.7867241
   3476,   2.34987903,   16.4068871
   3477,  -15.9338474,  -12.5667963
   3478, -0.670332849,  -18.9309349
   3479,  -3.32499552,   19.1585827
   3480,  -19.9392853,  -9.65132904
   3481,  -2.90573525,   19.7649326
   3482,  -3.17800212,  -18.5332108
   3483,   3.23464751,    16.856739
   3484,  -14.5764265,   12.2123547
   3485,   21.2657681,  -4.74243879
   3486,  -8.53777027,    16.915554
   3487,   7.56685257,  -14.9924803
   3488,  -13.6686049,   14.2539349
   3489,  0.800554574,  -19.3543415
   3490,  -14.2116194,  -11.1660461
   3491,  -21.3272724,  -1.49311757
   3492,  -21.4685707,   3.08472013
   3493,   1.84461343,  -19.3339825
   3494,   10.7133932,  -17.6920185
   3495,  -5.77197504,  -18.2580624
   3496,   -1.2131542,  -18.4859829
   3497,  0.241618782,  -17.8746147
   3498,   2.52565908,  -19.7275238
   3499,   15.8569851,  -10.3869286
   3500,   11.7528791,  -16.5349731
   3501,   15.6487551,  -13.6043262
   3502,  -8.83321381,  -17.6160297
   3503,   17.1006336,  -11.7266455
   3504,   18.9106159,   -27.997488
   3505,   8.86444378,  -17.1842499
   3506,   15.8977079,  -12.8205423
   3507,  -3.13759422,  -17.6314907
   3508,  -12.7964211,  -14.1803665
   3509,   -17.521244,   6.31180954
   3510,  -18.5021095,   7.79511642
   3511,   -20.237072, -0.0240993537
   3512,  -19.4701481,   1.75096869
   3513,  -11.6021347,  -15.5546427
   3514,  -6.45832586,   17.2843876
   3515,  -20.6410923,  -2.14119124
   3516,  -20.7781563,    3.5575211
   3517,  -20.7683601,  -0.78423655
   3518,  -11.0674849,   15.9950294
   3519,  -19.4928036,   -7.0395565
   3520,   19.4145279,  -7.36415052
   3521,   19.8250484,  -4.81982279
   3522,   13.4094038,  -16.0976715
   3523,  -17.1078129,  -9.78342056
   3524,   -17.650938,  -11.5216408
   3525,   22.0724525,  -31.0985756
   3526,  -17.9109631,  -31.1572208
   3527,   16.3366356,  -25.7409821
   3528,  0.309874982,   18.6259823
   3529,   16.7438564,  -9.26412678
   3530,   28.2296219,   12.8288288
   3531,  -13.8528185,  -28.1758595
   3532,   23.1161976,   -32.113121
   3533,  -9.44177151,  -27.6397305
   3534,  -7.28499508,  -28.2823277
   3535,  -16.5159397,  -31.7583485
   3536,   1.94813955,   16.8942318
   3537,  -27.9139652,  -27.6656075
   3538,  -26.4298668,  -28.5169544
   3539,  -28.9701633,  -30.2657471
   3540,  -31.8487606,  -33.5176353
   3541,   23.6704254,   13.3533592
   3542,  -11.9553146,   14.6003847
   3543,  -16.6925468,   9.20300865
   3544,   19.3479118,  -7.95865917
   3545,   2.90229702,  -20.7076015
   3546,   -18.633297,   5.68501329
   3547,  -21.4352932,  -0.88796401
   3548,   -6.5287652,   18.4174023
   3549,   7.99118567,  -16.9886665
   3550,   16.6662292,  -13.1102057
   3551,   16.2307777,  -8.70991898
   3552,  -27.9846115,  -26.9132919
   3553,  -17.4990158,  -32.1424713
   3554,   22.2950134,  -32.3460312
   3555, -0.138382033,  -19.3240871
   3556,   8.25536919,  -16.2608318
   3557,   7.16626453,  -15.7109938
   3558,   -1.6620965,  -19.0312862
   3559,  -4.90124702,   17.6537075
   3560,   13.8954744,  -15.5081444
   3561,   13.4979591,  -17.1272087
   3562,  -18.4674263,   7.12938213
   3563,   6.77019072,  -15.1080265
   3564,  -19.7308521,  -11.0618267
   3565,  -9.53350735,  -26.6441689
   3566,  -9.01935768,   17.4735928
   3567,  -7.95168114,   17.2794514
   3568,  -1.78542328,   19.7019749
   3569,   -20.838623,  -9.01569271
   3570,  -15.3622303,   12.3542528
   3571,   9.57464218,   -17.758913
   3572,   20.8117046,  -6.35020113
   3573,   -14.322957,   13.9914379
   3574,  -1.74691522,  -18.0176983
   3575,   1.20199537,  -20.0897503
   3576,   3.46785784,  -18.9741707
   3577,   14.6228266,  -14.1172609
   3578,  -5.53299952,  -17.7734642
   3579,  -4.90802383,  -18.6806717
   3580,  -15.8532267,    10.656414
   3581,   3.94898438,   17.6333485
   3582,  -21.7921486,  -2.05095863
   3583,  -21.8055248,   1.92327952
   3584,  -9.79257679,  -17.7323418
   3585,  -7.87754297,   -17.384655
   3586,  -17.4431877,   8.58284378
   3587,  -20.4327545,  0.572748423
   3588,  -20.1325588,   3.99734187
   3589,    1.0662173,   18.3560543
   3590,   17.6610126,  -9.24580097
   3591,  -20.5461159,  -7.13678837
   3592,  -19.2307377,  -6.15780687
   3593,  -18.8214397,  -10.8720837
   3594,  -16.1906757,  -13.3957529
   3595,   18.9152088,  -28.8853645
   3596,   16.4178848,  -13.8822098
   3597,   15.5631876,    -25.57798
   3598,   17.1013393,  -25.7748413
   3599,   21.7571201,  -30.2086277
   3600,  -13.5771799,  -15.3798571
   3601,  -18.3933735,  -30.2573376
   3602,  -10.3563623,  -27.5515366
   3603,  -7.58117962,  -27.2783375
   3604,   -6.8529563,  -29.0890007
   3605,   -13.163578,  -28.5203419
   3606,   19.6994781,  -8.82577801
   3607,  -25.9275188,  -29.7287979
   3608,  -26.0378857,  -27.9657192
   3609,    -28.73983,  -27.8263149
   3610,   28.9071865,    13.714139
   3611,   28.0260811,   11.9062729
   3612,  -31.4520874,  -32.3711624
   3613,  -32.5474358,  -33.7916985
   3614,  -21.8547707,   3.71270561
   3615,  -20.0971851,  -6.08938694
   3616,    2.7392292,  -21.5958023
   3617,  -18.7467194,  -11.6400814
   3618,   -2.1290164,  -19.5697231
   3619,  -21.2574177,  -7.47104979
   3620,  -19.3612175,  -5.29241228
   3621,   15.0304241,  -15.2101517
   3622,  -6.91145611,  -16.9756088
   3623,   5.89669609,  -15.6409454
   3624,   15.4899549,  -9.18438435
   3625,  -21.9395237,  -1.59365475
   3626,   -15.415864,    14.184824
   3627,    7.1677928,  -16.4980507
   3628,   -1.0886519,  -19.4861755
   3629,  -12.8416958,   14.9036646
   3630,  -4.85468006,   18.6286602
   3631,   14.0678034,  -16.5699501
   3632,  -7.61098671,   18.3198376
   3633,   17.9037933,  -11.4119606
   3634,  -9.18719196,   18.3076401
   3635,  -16.3726025,   11.2985649
   3636,  0.311711371,  -19.6214333
   3637,  -15.0764389,   11.8817835
   3638,  -14.9426403,   13.6151266
   3639,   3.38217044,  -20.0317116
   3640,  -2.41266656,   20.2725048
   3641,  -4.18191957,  -19.4507732
   3642,   17.2230034,  -14.1499815
   3643,   8.51158428,  -18.0733185
   3644,  -7.55609703,  -16.9313583
   3645,  -6.34785986,  -17.6768227
   3646,  -19.2709541,    5.3951335
   3647,   21.2310066,   -7.1928978
   3648,  -22.5321655,   3.32948542
   3649,  -25.3195133,  -30.5458374
   3650,   4.07058859,   16.4551086
   3651,   2.58963823,   17.5354099
   3652,  -20.0356617,  -6.77331686
   3653,  -17.1096439,  -13.3336515
   3654,  -15.3526897,  -13.5587416
   3655,  -7.03764296,  -30.0443287
   3656,   19.2749557,  -9.54644489
   3657,  -27.1521492,  -26.9503918
   3658,  -8.93296814,  -25.6833572
   3659,  -18.1500607,  -31.8971786
   3660,    17.229826,  -26.7311325
   3661,   16.9979057,  -24.9058361
   3662,   19.5139828,  -28.1782475
   3663,   18.9866352,  -29.8001213
   3664,   22.0249023,  -29.2143917
   3665,   21.1082706,  -32.5182953
   3666,  -6.39753389,  -27.8854103
   3667,  -18.9496841,   6.32678699
   3668,  -17.6754589,  -29.5644531
   3669,  -25.4380875,  -28.0905304
   3670,   29.0309677,    13.074688
   3671,   28.1056137,   11.3221769
   3672,  -2.75368905,  -17.1296387
   3673,  -9.33603287,  -18.4871941
   3674,   4.04298973,  -19.8402901
   3675,  -19.4912891,   4.38803244
   3676,  -7.10637951,   18.6785583
   3677,  -21.5605164,   -6.7179656
   3678,   -4.0187726,   19.6860809
   3679,   17.5557022,  -24.8130913
   3680,   16.9608078,  -14.9478855
   3681,  -22.2344437,   4.26946449
   3682,   15.3621607,  -14.4095535
   3683,  -16.0544682,   13.6697693
   3684,  0.942200899,  -21.1047649
   3685,   14.6242161,   -15.945549
   3686,  -5.33300686,    19.116663
   3687,   7.87549067,   -17.833353
   3688,   9.15209675,  -18.4630032
   3689,   22.2259312,   -28.248724
   3690,   2.43921351,  -22.4143333
   3691,   5.48301458,  -16.0456829
   3692,  -5.83369732,   18.7324829
   3693,  -6.80116606,  -18.2824039
   3694,   -13.912076,    15.150651
   3695,  -24.8989067,         -29.
   3696,  -15.3254709,   15.2881784
   3697,  -17.8758736,  -12.4585552
   3698,  -19.6826248,  -11.7714806
   3699,  -6.58923578,  -19.4883518
   3700,  -17.4269753,   -28.408247
   3701,  -1.52110779,  -20.0655193
   3702,  -17.0563812,   10.8894224
   3703,  -22.0080509,  -7.76748896
   3704,   18.5624809,  -12.0382223
   3705,  -22.1902752, -0.306180239
   3706,   17.4592495,  -13.3836155
   3707,  -17.7697544,  -32.6776733
   3708,   6.72065306,   -17.250061
   3709,   18.4240189,  -9.18593121
   3710,   20.0505886,  -9.81945419
   3711,  -19.9691486,   7.58003235
   3712,  -15.7617102,  -14.3746567
   3713,  -5.30110025,  -28.4723797
   3714,   -18.851923,  -31.7027721
   3715,   20.7626095,  -28.4928932
   3716,  -20.6243248,   4.67765856
   3717,  -7.30576086,  -17.7416973
   3718,   16.3485565,  -24.8405209
   3719,    17.775486,  -25.6436539
   3720,  -9.67572403,  -25.7205563
   3721,  -7.84844017,  -26.2589436
   3722,   6.58515072,  -15.9407434
   3723,   19.9811115,  -27.7314186
   3724,  -21.2649727,   1.24520874
   3725,  -27.9944954,  -25.3838577
   3726,  -26.1648197,  -26.3701019
   3727,   19.8150864,  -29.8032646
   3728,   22.0355091,  -6.39544439
   3729,   -15.210309,   11.0132895
   3730,   15.8349123,  -15.5421371
   3731,   -8.2268734,  -18.0210285
   3732,   7.57976389,  -18.5166931
   3733,  -17.1937637,   13.7675381
   3734,   16.4464703,  -23.9954624
   3735,  -7.72703695,  -19.9315014
   3736,  -20.5029716,  -11.8824959
   3737,   19.3540306,  -12.1660385
   3738,  -7.87682819,   19.0598278
   3739,  -2.66313267,  -20.0946598
   3740,  -21.8527317,  -6.00802946
   3741,  -1.29755068,  -21.1712284
   3742,   15.4951925,  -16.5066261
   3743,  -22.6166019,   1.40919685
   3744,  -4.93753481,   19.5305614
   3745,  -22.4093113,  -7.03286076
   3746,   18.0598927,  -14.4114685
   3747,   16.7092094,  -15.7499952
   3748,  -9.92825222,   18.8526554
   3749,  -9.79584503,   18.1583691
   3750,  -13.5718784,   16.0149708
   3751,   -22.799242,   3.96066308
   3752,  -21.7462292,    4.7633276
   3753,   -16.064415,   12.4532108
   3754,  -14.7749529,   15.8536825
   3755,   -15.935605,   14.7509718
   3756,   4.86918116,  -19.6447144
   3757,   4.54897881,   -18.703619
   3758,  -17.6965485,   10.4471741
   3759,  -16.8849716,   12.0040274
   3760,   2.84837461,   -22.070879
   3761,   1.96936274,  -21.8304596
   3762,   18.5343723,      -11.118
   3763,  -15.8981657,  -15.3458681
   3764,   17.4831161,  -23.8796864
   3765,  -19.2638359,   7.69488335
   3766,   8.80151749,  -19.1566105
   3767,   20.4816475,  -9.05886841
   3768,  -21.8237438,  -8.48493195
   3769,    22.987505,  -28.5468578
   3770,   6.89599943,  -18.0864067
   3771,    29.702322,   12.3304911
   3772,   -16.823576,     -27.8139
   3773,  -24.0949478,  -29.3360653
   3774,  -5.00227928,  -29.3561783
   3775,   -18.038538,  -13.3104916
   3776,  -19.6179638,  -31.4510422
   3777,   19.9355793,  -30.9109402
   3778,   22.6697578,  -6.85752535
   3779,  0.373498976,     -21.9354
   3780,   -10.338769,   17.4086208
   3781,  -17.4233799,   12.6860008
   3782,   16.5440292,  -16.5407524
   3783,   5.13547421,  -17.5383263
   3784,   -16.491333,   15.2941875
   3785,  -2.57479835,   -21.312006
   3786,  -9.96881008,   19.5597343
   3787,  -7.19824314,   19.3749352
   3788,  -23.2970066,   3.73515439
   3789,  -15.4990683,   16.4032555
   3790,  -7.15997744,   17.6301575
   3791,   6.42504263,  -19.6614532
   3792,  -23.8548164,   1.42306149
   3793,  -22.4297161,   5.12351179
   3794,   -8.8004961,   19.3199501
   3795,  -14.3654757,   16.5169201
   3796,  -10.3319941,   18.0868568
   3797,  -9.36232758,   18.9844074
   3798,   15.8174238,  -17.4600525
   3799,   5.41724586,  -18.4202595
   3800,  -12.7110119,   15.6594219
   3801,    5.1533308,  -19.0406094
   3802,  -3.71820784,   20.4915848
   3803,   19.2772465,  -13.0314941
   3804,   9.77503777,  -18.9463234
   3805,   8.52788258,  -19.8442612
   3806,    18.280838,  -13.6323624
   3807,  -15.9680157,   15.8333635
   3808,  -17.6257477,   11.5472975
   3809,  -18.2322865,    11.030982
   3810,   17.5889664,  -15.9515419
   3811,   17.8183975,  -15.2038727
   3812,   17.7523594,  -10.5816402
   3813,   2.96194077,   -22.875864
   3814,  -19.8352985,  -10.3806314
   3815,  -21.1577606,  -5.53014803
   3816,  -5.76097631,   19.6193104
   3817,  -16.4215145,  -16.0186996
   3818,  -22.7435856,   -8.6761179
   3819, -0.537139416,  -21.8043461
   3820,   18.2499237,  -24.1947842
   3821,  -19.4175835,   8.40935993
   3822,  -1.84511447,  -21.7836819
   3823,   21.8559666,  -8.55254269
   3824,   1.52525091,   -22.485878
   3825,    23.311039,  -6.19766521
   3826,    23.800415,  -28.8815346
   3827,  -6.48380518,   -29.835928
   3828,  -4.56984615,  -28.2071228
   3829,  -18.9623356,   -13.340847
   3830,  -17.4646358,  -27.0953808
   3831,   -24.615324,  -30.0382366
   3832,  -23.8684711,  -28.5041981
   3833,  -19.3457565,  -30.6817799
   3834,  -19.8273964,  -32.3061066
   3835,   29.2426205,   11.5295086
   3836,  -17.2973003,  -14.1632175
   3837,  -8.60795879,  -19.7194176
   3838,   18.1350174,  -30.6236897
   3839,  -9.50439072,  -19.5506248
   3840,   6.19962883,  -17.9954338
   3841,  -11.0022182,   16.7655716
   3842,   -14.005043,   17.2514553
   3843,   16.5852547,  -17.3226318
   3844,   -23.026104,  -27.7431774
   3845,  -20.7532139,  -9.80926704
   3846,  -9.70539665,   -20.399395
   3847,  -16.1813297,   16.8790245
   3848,  -3.01025748,   20.9471779
   3849,   19.5435009,  -15.7519407
   3850,  -3.98832726,  -27.9292984
   3851,    7.3079114,  -19.2387848
   3852,   10.3596687,  -19.5174065
   3853,   9.50202656,  -20.3166542
   3854,  -17.0597553,   14.7983713
   3855,  -11.1140118,   19.1857719
   3856,  -8.17437744,   19.7957268
   3857,  -18.1000004,  -26.4322262
   3858,  -3.42747188,  -20.5836983
   3859,   -18.822958,   11.5351458
   3860,    15.905364,  -22.7338161
   3861,  -9.51262665,   19.4751816
   3862,   5.50774574,  -20.0173798
   3863,   9.37790775,  -19.5298309
   3864,   15.1288576,  -17.7765083
   3865,  -4.48377991,   20.5243797
   3866,   19.1562424,  -13.8691292
   3867,   22.3699684,   -27.168745
   3868,  -21.2231045,   5.44283438
   3869,  -11.1156874,    18.459156
   3870,   20.9497585,  -11.6559916
   3871,  -24.1026192,   2.48065662
   3872,  -22.1580677,  0.612332404
   3873,  -18.7457333,   9.16455269
   3874,  -21.6870098,  -4.79524231
   3875,  -23.1068974,  -29.8010025
   3876,  -15.4667215,  -16.1126556
   3877,  -17.4734459,  -14.9934015
   3878,  -10.3432102,  -17.9936428
   3879,  -19.7311821,  -12.5348625
   3880,   23.1837101,  -5.00755692
   3881,   23.9093075,  -6.74001312
   3882,    18.802454,  -24.6855583
   3883,   21.2894993,  -28.8650055
   3884,   15.7597904,  -23.7709675
   3885,  -4.73741722,  -27.3789024
   3886,   3.63110018,  -17.8415565
   3887,  -4.79488611,   -30.287056
   3888,   24.4759388,  -30.0929756
   3889,  -18.0422096,  -27.6981335
   3890,   18.4799213,  -16.2436543
   3891,  -23.7704678,  -27.6801281
   3892,  -19.0229092,  -29.9747658
   3893,  -19.0253887,  -32.5344086
   3894,   30.4772682,   11.2434216
   3895,   23.9576969,  -28.0242939
   3896,  -22.4179726,  -9.40804195
   3897,   17.3036289,   -17.300684
   3898,  -5.36092949,   20.3500233
   3899,  -12.3315592,   18.9880466
   3900,  -10.1193905,  -17.3297844
   3901,  -19.1018887,  -33.4321976
   3902,  -5.08911419,   21.1638603
   3903,   16.0733566,  -18.2401485
   3904,  -3.09536624,  -22.1750317
   3905,  -21.2928123,   6.19317102
   3906,  -10.8775263,  -18.0908127
   3907,   6.18639994,  -17.2985306
   3908,   9.53602314,  -20.8456898
   3909,  -11.4421902,   17.6848927
   3910,   19.6177216,  -24.7877636
   3911,   -14.726367,   17.7189655
   3912,  -9.16431522,    19.867897
   3913,   6.16731215,  -20.3724995
   3914,   11.4546108,  -19.4522285
   3915,  -7.34272718,   20.3870506
   3916,  -10.6398878,    19.616848
   3917,  -10.3666878,  -19.4095078
   3918,   5.18189526,    -20.67449
   3919,  -17.6732292,    16.263216
   3920,  -12.0265865,   17.9538822
   3921,  -3.47396064,   21.6800041
   3922,   14.0816965,  -17.6233559
   3923,  -19.8815632,   10.3840208
   3924,   1.91881549,  -23.9776268
   3925,   22.3197098,  -9.27331066
   3926,  -19.3341351,   9.95410347
   3927,  -16.4795456,   17.8757286
   3928,   20.2358189,  -11.5145025
   3929,  -9.70364666,   20.2440472
   3930,  -25.0336304,   1.08766508
   3931,  -23.2766953,   3.12037659
   3932,  -23.1890545,   5.16663742
   3933,   16.5474758,  -22.0380878
   3934,  -22.3800545,  -5.41335011
   3935,  -22.2080612,  -28.5270424
   3936,   18.1945515,  -16.8813133
   3937,  -14.7643566,  -15.6151133
   3938,  -3.47037578,  -29.2039871
   3939,  -19.8659554,  -13.3747559
   3940,   22.0044346,  -5.19913006
   3941,   23.9219055,   -5.4966507
   3942,    23.717165,  -7.93680859
   3943,   -16.873642,  -26.4602947
   3944,  -18.1584225,  -14.1399326
   3945,   22.8223553,  -26.3991318
   3946,   20.1823864,  -14.1334476
   3947,   21.7046604,  -9.73777676
   3948,  -5.57718229,  -30.4898663
   3949,  -23.9652367,  -30.6161613
   3950,   24.7427444,  -28.3309803
   3951,  -21.4707394,   -10.770834
   3952,  -11.3481064,   20.0351715
   3953,   19.4987965,  -16.7030888
   3954,   13.6425629,  -18.1779404
   3955,  -9.28814793,   20.8859768
   3956,  -6.13719988,   21.2542095
   3957,  -10.5387011,  -17.4183807
   3958,   12.9947643,  -17.6602859
   3959,  -23.4653549,  -5.74802303
   3960,  -11.5448217,     19.36586
   3961,   -6.5445652,   19.3427029
   3962,   6.84643793,  -20.7062225
   3963,  -13.2719297,   16.8066711
   3964,   8.20714378,  -21.2708664
   3965,  -13.6613607,   18.0000153
   3966,   -20.720171,   6.68538666
   3967,  -10.9286194,  -19.1143131
   3968,   11.3549986,  -18.2600346
   3969,   11.3915272,  -20.6742077
   3970,  -3.79279757,  -21.3850822
   3971,   -11.455862,  -18.5721111
   3972,  -19.3315372,   10.9432869
   3973,   -2.8787396,   22.0973225
   3974,  -17.5082874,   17.7295914
   3975,  -15.7995033,   17.4791012
   3976,   26.2211609,  -27.7680473
   3977,   1.47988212,  -23.4584846
   3978,  -24.1666183,  -31.8989258
   3979,   20.1240368,  -24.9855251
   3980,  -18.2312317,  -33.4600372
   3981,   17.2161827,  -22.5666199
   3982,  -5.44730711,  -31.4018917
   3983,  -3.99063897,  -30.0753689
   3984,  -3.54798794,  -28.2704678
   3985,   21.8652496,  -26.3079739
   3986,   23.4367027,  -26.8739567
   3987,  -15.6196327,  -26.4807529
   3988,  -17.5314522,  -25.7861767
   3989,   -22.962925,  -9.55224419
   3990,  -22.0172424,   -29.510828
   3991,  -21.4072666,  -28.2584152
   3992,   23.6291866,  -4.31138802
   3993,  -18.0926838,   15.7750273
   3994,  -20.4513988,   9.81654358
   3995,  -12.8634529,   19.4389439
   3996,   25.1672153,  -5.09379816
   3997,   4.81007338,   -21.325016
   3998,  -10.3946304,   16.7018719
   3999,   23.1699333,   -9.0022049
   4000,  -9.95600605,   21.3058453
   4001,  -11.5816593,  -19.3110313
   4002,  -23.3753052,  -9.20810509
   4003,  -23.7812824,  -9.80048847
   4004,  -15.4509907,    18.150116
   4005,   20.0465889,   -17.661417
   4006,   20.2587948,   -15.205265
   4007,   13.7638559,  -19.2524815
   4008,  -21.5501289,   7.08448887
   4009,   23.3085155,  -9.75051498
   4010,  -5.25738907,    22.170784
   4011,  -11.0614262,   20.8806915
   4012,   6.60694551,  -21.4301376
   4013,  -8.85889912,   21.5172062
   4014,  -23.6157932,  -32.3938942
   4015,  -4.27295446,  -21.9329548
   4016,  -4.49137259,   -32.130764
   4017,  -11.0455933,  -17.5424461
   4018,   11.9858484,  -18.7946377
   4019,  -6.06483269,   19.2498398
   4020,    12.050128,  -20.0082569
   4021,   9.46945953,  -21.5209274
   4022,   7.52545214,  -21.0114517
   4023,  -19.5165348,   11.9005251
   4024,  -3.83140087,    22.287468
   4025,  -23.5587788,  -6.32496405
   4026,   4.05829763,  -23.9569073
   4027,  -23.9095631,   5.64535427
   4028,  -13.2979546,   18.7300186
   4029,  -12.0105438,   19.4961739
   4030,   5.57307529,  -21.7786884
   4031,    3.5495832,  -21.4440079
   4032,   17.0216827,  -21.5148544
   4033,   17.8614483,  -23.1101627
   4034,  -9.81471348,   16.6936703
   4035,   20.3113976,  -24.1756725
   4036,   18.8236828,  -25.9302349
   4037,   26.2383232,  -28.6336308
   4038,   21.4984512,  -26.6204166
   4039,   24.1346016,  -27.2559357
   4040,  -15.5954733,  -27.8042355
   4041,   25.7505646,  -6.07608604
   4042,  -1.73694265,   21.7913418
   4043,  -17.4522667,  -33.2370224
   4044,  -20.1955204,   12.8458014
   4045,   12.4986267,  -18.2042885
   4046,    20.185173,  -26.8548679
   4047,   17.6925983,  -20.7315445
   4048,  -19.2889729,   12.4637022
   4049,   3.37089777,  -22.2724972
   4050,  -23.9959888,  -8.82148361
   4051,    13.165864,  -19.6973515
   4052,  -9.53064537,   21.9885159
   4053,   -12.425519,  -17.5955276
   4054,  -10.8114557,   -20.174078
   4055,  -15.1282473,   18.9081631
   4056,   -19.999115,   8.18049717
   4057,   14.2782459,   -19.980648
   4058,   13.1401548,  -18.7105446
   4059,   -6.0946002,   22.2002678
   4060,  -4.46422195,   22.2358952
   4061,   6.35585594,  -22.1606541
   4062,   19.3758335,  -17.9965363
   4063,  -22.7096462,   6.83058548
   4064,  -8.15243435,   21.0075378
   4065,   20.4721889,  -16.5601597
   4066,  -23.9376583,  -10.4014673
   4067,  -13.4669809,   19.9205723
   4068,   8.79397964,  -22.2298164
   4069,  -4.70362425,   -21.507618
   4070,   4.43061399,  -22.0068169
   4071,  -2.23773217,   22.4771004
   4072,  -23.9575844,   4.99311304
   4073,   -1.2435621,    21.176424
   4074,  -24.3638325,  -5.76130724
   4075,  -23.6591396,  -7.15743065
   4076,   16.0322437,  -21.3529377
   4077,   17.8116035,  -21.7568054
   4078,   19.6885567,  -22.9212341
   4079,   25.7470226,  -6.79761791
   4080,    26.165411,  -5.24334335
   4081,   21.0273037,  -24.6220264
   4082,   -23.935482,   6.58284664
   4083,  -16.8873081,  -34.1591606
   4084,   7.14704418,  -22.4901676
   4085,  -7.78027391,   21.7397289
   4086,   5.24269438,   -22.525671
   4087,   15.8271799,  -20.2101002
   4088,  -19.8564129,   11.3380423
   4089,   -20.812418,   13.6512337
   4090,  -18.9347763,   13.7118559
   4091,   16.8250122,   -19.761694
   4092,  -16.1707726,   18.5088844
   4093,  -14.8018599,   19.8261662
   4094,   8.63920784,   -23.022438
   4095,   11.8968363,  -21.0764523
   4096,   13.5830402,  -20.2153168
   4097,   14.9756842,  -19.5159607
   4098,  -12.9261723,   20.5998573
   4099,  -5.36740637,   23.1189098
   4100,   -22.216692,   5.76874876
   4101,  -22.8314381,  -6.03397942
   4102,  -11.8481188,  -17.2067394
   4103,  -12.9723606,  -18.0872688
   4104,   20.3618546,  -18.4938183
   4105,   18.4581089,  -17.7865295
   4106,   -5.8896575,  -21.5943832
   4107,  -1.34437013,   20.1929626
   4108,  -1.09279203,   22.2131538
   4109,  -23.3350868,  -10.9824781
   4110,   18.1967735,   -22.514513
   4111,   -24.090374,  -6.55574465
   4112,  -24.1460133,  -4.90837193
   4113,  -23.4046764,   7.25987625
   4114,   25.4731216,  -4.31353331
   4115,   21.6589661,  -25.1658783
   4116,    4.8774662,  -23.4090004
   4117,   13.1650667,  -20.8923435
   4118,  -25.2293911,  -5.41350937
   4119,   18.8649235,  -21.6035042
   4120,   25.9321308,  -3.61079073
   4121,   13.7136822,  -20.8672733
   4122,   13.7881489,  -21.5938778
   4123,  -13.1169872,   21.4941902
   4124,   17.9410172,  -17.4290371
   4125,  -24.6554394,  -9.50068951
   4126,  -7.01416588,   21.4110794
   4127,  -21.7612514,   13.9303207
   4128,  -17.8569336,   13.3706675
   4129,  -22.5816669,   4.64327002
   4130,  -20.0346947,   13.9847593
   4131,  -13.9830046,   19.2276993
   4132,  -15.7638912,    19.908371
   4133,  -17.1220322,   18.2189846
   4134,   14.9285183,  -20.3889103
   4135,   15.3970013,  -18.5206814
   4136,  -20.3647079,   10.8683481
   4137,  -5.47627974,   24.1106167
   4138,  -22.2049198,   7.53223848
   4139,    7.7408452,  -23.5417824
   4140,   17.6316471,  -19.9081593
   4141,  -5.40584421,  -22.3643074
   4142,  -21.7322083,   11.7493372
   4143,  -13.4446068,  -17.4331112
   4144,  -12.1965714,  -19.8481312
   4145,  -23.8136997,  -11.5981855
   4146,     22.05303,  -24.5590897
   4147,   21.0088387,  -26.3867283
   4148,  -25.6239395,  -6.12822008
   4149,  -1.12388849,    19.246563
   4150,   15.8753128,  -19.3949471
   4151,  -18.1859074,   18.2765179
   4152,  -13.9474573,   21.6635513
   4153,   14.4381552,  -21.4709167
   4154,  -21.5826492,   8.15741444
   4155, -0.823198974,   20.6261959
   4156,   18.0692596,  -18.1635761
   4157,   17.3532219,  -17.9377327
   4158, -0.540574014,   20.1935921
   4159,  -22.1881523,   8.81939507
   4160,   20.4243965,  -26.0839252
   4161,  -12.4916477,   22.2104816
   4162,   13.0254126,  -22.2939014
   4163,   19.8004246,  -21.9785442
   4164,   24.4119225,  -2.78990698
   4165,   15.4838343,  -20.8082047
   4166,  -15.1470156,   20.7114677
   4167,   -25.576416,  -10.4678869
   4168,  -21.9008045,   13.2656822
   4169,  -6.30331945,   23.9437351
   4170,  -4.54954243,   23.9043121
   4171,   6.95057726,  -23.2344627
   4172,   8.46985435,  -23.8108597
   4173,   18.3834782,  -19.8109341
   4174,  -23.5784206,   8.37279797
   4175,  -12.8998976,   -19.280983
   4176,  -24.6611538,  -11.1027107
   4177,   22.6597233,  -25.1641407
   4178,  -24.8001995,  -6.91034222
   4179,  -26.0200291,  -5.04084301
   4180,  -15.7074156,   20.5023289
   4181,  -14.6951256,  -19.8606777
   4182,  -21.1992836,    9.2967329
   4183,   23.7554035,  -25.1097298
   4184,  -15.5173616,   21.3001461
   4185,  -25.4824944,  -11.2359943
   4186,   17.0364666,   -18.924614
   4187,   19.3043766,  -20.3833733
   4188,  -23.7994213,   9.40137196
   4189, -0.137304366,   19.5256672
   4190,  -13.1694317,  -16.2120419
   4191,  -22.5165863,   13.4288492
   4192,  -22.4344559,   11.3324814
   4193,  -17.4135056,    19.652668
   4194,  -13.2870483,   22.0577469
   4195,   13.8828993,  -22.4600677
   4196,  -11.8273134,   21.1698055
   4197,  -22.9316406,   9.55633736
   4198,  -0.55711019,   21.5955429
   4199,    9.3074398,  -23.2336674
   4200,  -13.4508171,  -19.9515591
   4201,   24.0352478,  -3.58546352
   4202,   26.1579304,  -1.90579081
   4203,  -25.8457355,  -9.00282955
   4204,  -5.19274187,   24.9792652
   4205,    -23.30023,   9.93760586
   4206,  -22.8709278,   11.9017448
   4207,   17.6352348,  -19.3052616
   4208,    26.550457,  -1.41549003
   4209,  0.128970116,    22.068821
   4210,  -16.5210915,   20.1773853
   4211,   -22.339817,    9.6888237
   4212,  -15.2452745,  -19.1296425
   4213,   19.4128971,  -21.0373478
   4214,  -21.6446629,   14.7207232
   4215,  -22.6911678,   10.3279667
   4216,   -18.113287,   19.7356625
   4217,  -11.5060406,   22.2791538
   4218,   23.9763832,  -25.7838688
   4219,   0.59231478,    19.345171
   4220,   20.5889568,  -22.0862217
   4221,   23.5877361,  -2.49025249
   4222,   24.3761616,  -4.73118067
   4223,   26.4139156,  -2.93293405
   4224,  -25.1010685,  -8.71657085
   4225,  -15.7458363,   21.7353268
   4226,  -26.3787994,  -11.3715324
   4227,   10.6695957,  -23.4927578
   4228,  -7.00747967,   23.9162083
   4229,  -19.1169529,   20.2985535
   4230,  -6.52281809,   24.6571579
   4231,  -27.3136482,   -11.466671
   4232,   21.5241737,  -22.7320442
   4233,  -20.9861546,   15.2001152
   4234,  -24.9229698,   9.21786594
   4235,  -23.4369907,   12.4169741
   4236,  0.848910391,   21.2206783
   4237,  -15.9224224,   19.2014656
   4238,  -20.9283695,    14.313817
   4239,  -21.6214828,   10.0201082
   4240,   -18.150671,   20.4432468
   4241,   0.78476131,   20.1690197
   4242,   25.3928185, -0.742248237
   4243,  -21.3778782,   11.0817575
   4244,  -15.1845961,  -17.9262276
   4245,  -15.7076073,  -19.6281281
   4246,   9.17060757,  -24.0264835
   4247,  -15.4429989,   22.2763119
   4248,    24.825592,   -24.741436
   4249,   23.7096596,  -26.2240829
   4250,   11.5454168,  -23.4951496
   4251,   24.7999649,  -1.87451577
   4252,  -25.3120575,  -12.0164871
   4253,  -17.3120213,   20.3929787
   4254,    9.0262394,  -24.8577557
   4255,   24.6025887, -0.894112825
   4256,   9.77261925,  -25.0151958
   4257,  -7.47406864,   23.1739712
   4258,   25.2777443,  -24.1681824
   4259,  -19.5770607,   19.4665947
   4260,  -6.55116177,   25.3617325
   4261,  -20.3327484,    15.526968
   4262,  -17.1901588,   21.2752075
   4263,  -20.4435921,    14.614109
   4264,   22.0005188,   -23.381628
   4265,    1.6343956,   19.9294434
   4266,  -24.1164532,   7.68730783
   4267,  -24.0572319,   11.8555756
   4268,  -24.0153351,   12.8714333
   4269,  -27.4387798,  -10.6870584
   4270,  -14.9542608,   21.8020897
   4271,    11.109973,  -22.5084743
   4272,  -14.5478678,   -17.347887
   4273,  -15.9080544,  -18.4961033
   4274,   26.0218601, -0.565872014
   4275,   24.4086704,  -23.7383652
   4276,  -16.6408558,  -17.6266594
   4277,  -18.1399593,   22.0442085
   4278,   2.49715257,    19.608408
   4279,   8.83958244,  -25.7475719
   4280,   10.6380501,  -25.9971714
   4281,  -19.8951912,   18.7199287
   4282,  -20.0067921,   20.5042381
   4283,  -8.19752979,   23.6537991
   4284,  -21.4769287,   16.0284824
   4285,  -7.54671288,   22.4624863
   4286,   11.5696564,  -22.3488445
   4287,   -5.8655715,   26.1435242
   4288,   11.0858641,  -25.0045013
   4289,  -23.5666695,   13.5948305
   4290,  -24.6514759,   13.1820717
   4291,   -25.486475,   9.68933201
   4292,  -16.2531395,  -19.2326794
   4293,  -16.0808754,  -17.7936363
   4294,   26.0946102,  -25.0565701
   4295,  -28.2593918,  -11.5671444
   4296,  -27.5160236,  -9.90296936
   4297,   26.3307247, -0.953060031
   4298,   24.4934998, 0.0110379616
   4299,  -25.2887955,    13.398304
   4300,  -24.4238205,   13.7221165
   4301,   24.0235138,  0.730119824
   4302,  -16.9037285,  -19.0675354
   4303,   27.1518497,  -1.43990183
   4304,   -17.566124,  -18.2939167
   4305,  -17.4358387,   22.1639786
   4306,   2.23922396,   18.7716656
   4307,   9.67969608,  -25.9149284
   4308,  -19.2176437,    17.954073
   4309,  -20.6304646,    19.126379
   4310,  -22.1854782,   15.5537643
   4311,  -24.5519829,   12.3094006
   4312,  -24.9758434,   13.7993269
   4313,  -25.5018482,   8.56549072
   4314,  -15.6300344,  -17.2959614
   4315,  -5.03670216,   25.7323475
   4316,   25.9699841,  -23.7284946
   4317,   26.1468906,   -26.085186
   4318,   23.7619152, -0.914430916
   4319,   11.4680262,   -25.531414
   4320,  -24.0454407,    14.855504
   4321,  -4.41006041,   26.4830303
   4322,  -22.3840427,   14.6307268
   4323,  -25.1934395,   11.8912525
   4324,  -21.3861084,    19.369175
   4325,   11.2625189,  -26.4980278
   4326,  -17.5179996,   22.9451046
   4327,   9.49758053,  -26.8767834
   4328,  -26.3835506,   13.3029251
   4329,  -16.1012096,   22.4143105
   4330,   -20.545578,   18.2220612
   4331,   24.5329227,    1.2490499
   4332,  -19.5670452,   17.4122677
   4333,    -18.11096,   -17.394701
   4334,   8.58732986,  -26.7186394
   4335,   27.6284199,  -2.51764536
   4336,   -25.373045,   7.44001389
   4337,   -26.123951,   9.03915787
   4338,  -4.43712759,   24.7186832
   4339,   24.3130798,  -26.5695686
   4340,  -18.0419502,  -19.9176121
   4341,  -3.35865116,   24.8106651
   4342,  -21.1476765,   17.8185616
   4343,  -19.2420883,  -20.0019207
   4344,  -19.3482761,   16.4934368
   4345,  -24.6478348,   7.01131153
   4346,  -5.40435505,   26.7446251
   4347,  -21.6409054,   18.5390053
   4348,  -16.9071522,   23.8820953
   4349,    10.231637,  -27.9362431
   4350,  -25.8212452,   13.9335766
   4351,  -17.1442471,  -16.6995735
   4352,   -26.075592,   7.87804365
   4353,  -26.0191154,   10.1995592
   4354,   23.7939644,   1.79292762
   4355,   25.3458958,  0.544558525
   4356,  -24.5775013,    14.922617
   4357,   27.9631405,  -1.57654631
   4358,   27.2027264,   -3.3514905
   4359,  -17.2020454,  -20.8590221
   4360,  -5.89903545,   27.4205132
   4361,  -16.9904175,  -15.9079618
   4362,   29.1614227, -0.979334474
   4363,  -2.60912585,   25.2050152
   4364,  -3.82591343,   24.4631405
   4365,  -20.5902767,    17.316555
   4366,   -18.713438,   16.1002197
   4367,  -20.1371632,  -19.8139954
   4368,  -22.3353081,   19.7714844
   4369,  -16.0008602,   23.1951923
   4370,  -17.6385231,   23.7349644
   4371,  -24.3421879,   9.83005524
   4372,  -25.1681595,   14.2616119
   4373,    11.014739,  -27.9565544
   4374,   9.36305523,  -27.8848629
   4375,  -25.3304844,   14.9458265
   4376,  -23.3789978,   15.7063751
   4377,   26.0663929,  -4.55314922
   4378,   28.2574902,  -0.50278765
   4379,  -26.5356712,   10.7448597
   4380,   28.4675407,  -2.79205465
   4381,  -27.3599339,   7.57701731
   4382,  -2.30960655,   24.2317581
   4383,  -3.51776433,   22.9125786
   4384,  -23.7453442,   10.3844786
   4385,  -6.33217001,   28.3543148
   4386,  -19.7787018,   15.9672947
   4387,  -18.3045101,   16.6658211
   4388,  -21.6247883,   20.4808426
   4389,  -1.58776617,   24.9732285
   4390,  -18.3328857,   23.5544376
   4391,  -19.3254757,  -17.9208145
   4392,  -20.4710674,  -20.2964191
   4393,  -24.4317284,   15.5430336
   4394,   11.0636787,  -28.7766018
   4395,   30.0109768,  -1.26109648
   4396,  -28.0847931,    8.0134058
   4397,   28.0828857,   -3.8895247
   4398,  -23.4784279,   19.3929539
   4399,  -17.9013462,   17.2136898
   4400,  -23.6425323,   16.8097992
   4401,   11.6229858,  -28.6074066
   4402,   11.4378538,  -29.5754223
   4403,    28.328619,  -4.83644342
   4404,  -20.3972187,    16.428566
   4405,  -25.2133179,   15.7386332
   4406,  -7.09075689,   27.5719204
   4407,  -18.7347984,  -17.1851273
   4408,   -28.686327,   7.15113974
   4409,   -27.422863,   8.83622742
   4410,   -24.206152,   18.7076969
   4411,   29.3941231,  -2.93857312
   4412,   30.3490944, -0.493989706
   4413,  -19.1040459,   15.3984041
   4414,  -18.5568619,   17.6332569
   4415,  -26.0807323,   15.8985443
   4416,  -25.7867279,   16.7575569
   4417,  -25.5695553,   17.5254841
   4418,  -5.18170738,   28.8022251
   4419,    10.519742,  -30.0749283
   4420,  -24.2167873,   20.1733513
   4421,  -22.9706802,   18.5816936
   4422,   27.4983425,  -5.26770496
   4423,  -7.10493422,   29.0148392
   4424,  -7.00418663,   26.3034229
   4425,  -27.1197243,   6.40030575
   4426,  -4.70151329,   28.2132015
   4427,   29.5954609,  -0.23893787
   4428,  -27.5416241,    5.6483984
   4429,   29.3924522,  0.631540716
   4430,  -7.26385069,   25.5136604
   4431,  -26.3411732,   14.8200397
   4432,  -23.6932793,   18.0371933
   4433,  -22.3577518,   17.9342384
   4434,   12.1125994,  -30.4001598
   4435,    9.4000721,  -30.0245819
   4436,  -5.57685041,   30.4908161
   4437,    -7.753057,    28.164238
   4438,  -9.07714176,   27.9151134
   4439,  -26.8112984,   5.28744078
   4440,   29.1502819,   1.28739607
   4441,  -27.3322468,   15.3267136
   4442,  -23.0238113,   17.3817272
   4443,   9.35241127,  -28.9462261
   4444,  -7.68972588,   26.7326431
   4445,  -6.47249413,   29.9610252
   4446,  -5.09079218,   29.9039116
   4447,   9.34286499,  -31.0795937
   4448,  -27.7765427,   14.4431744
   4449,  -8.99945068,   26.4591618
   4450,  -8.45717525,   28.7473011
   4451,  -25.6465454,   5.61216593
   4452,  -28.3107929,   4.35997581
   4453,   11.2801838,  -30.6502037
   4454,  -6.50037479,   30.7842007
   4455,  -9.74904537,     28.48699
   4456,   29.8569431,   3.19662309
   4457,  -27.7669563,   3.66522932
   4458,   11.1719151,  -31.4239674
   4459,  -9.14635754,   29.3009167
   4460,  -7.43008757,    30.410387
   4461,  -7.05774927,   31.1816769
   4462,   10.1845665,  -32.2064514
   4463,   -28.236208,   13.6273661
   4464,  -28.2627239,    15.757165
   4465,  -9.69764328,   27.0947704
   4466,   -25.587656,   4.65705919
   4467,  -25.8887196,   6.73556232
   4468,  -28.6574039,   5.27605772
   4469,    28.312746,   1.40486765
   4470,   30.9386082,   1.11793149
   4471,  -10.4120083,   27.6895943
   4472,  -26.8427925,   3.29207706
   4473,   28.7555199,   3.19630265
   4474,  -8.63954639,   30.1216526
   4475,  -26.1315632,   4.94831562
   4476,   11.0757236,  -32.3511734
   4477,  -6.51553917,   31.8378754
   4478,     28.40378,    2.2100718
   4479,  -26.4892807,   4.16110039
   4480,   28.3249092,   2.81684422
   4481,      11.8427,   -33.455555
   4482,  -28.8473911,   3.01783538
   4483,  -11.2152948,   28.3339348
   4484,   11.9475422,   -32.492527
   4485,   29.2812786,   3.81688833
   4486,  -7.16088867,   32.5436211
   4487,   10.9065084,  -34.2590981
   4488,    28.103672,   3.71246195
   4489,  -11.6825438,   27.1966324
   4490,  -11.2824831,   29.4699287
   4491,  -4.93651056,   31.0386238
   4492,   30.3631058,   2.76576924
   4493,  -26.4748669,   1.98797226
   4494,  -29.4025879,   3.54773641
   4495,   31.0089703,   3.02321243
   4496,   27.7962341,   3.01488018
   4497,   28.5520802,   4.43051195
   4498,  -25.8300247,   2.95616961
   4499,   11.7440577,  -34.4213715
   4500,  -12.2599621,   28.4282227
   4501,  -10.6913004,   29.5290928
   4502,  -13.2699795,   28.3691502
   4503,  -27.0148277,     1.107499
   4504,  -30.4238777,   3.65284991
   4505,  -11.0755692,   30.3909855
   4506,   32.0432091,   1.53704512
   4507,   29.1522865,   5.11966991
   4508,  -11.5049181,    31.479229
   4509,  -13.6462831,   29.0882683
   4510,  -27.8081894,   1.51092041
   4511,  -29.6417351,   5.33740759
   4512,   -30.805584,   3.24114347
   4513,  -11.7536497,   30.5367546
   4514,    28.427166,   5.74501371
   4515,   29.9228535,    4.5128808
   4516,   32.2066307,   2.70091128
   4517,   31.7022629,  0.826035798
   4518,   33.0494804,   3.17934155
   4519,  -31.4781303,    2.4151361
   4520,  -27.5282536,  0.267380536
   4521,  -28.1290531,   2.70175242
   4522,  -10.7847509,   31.2767277
   4523,  -28.3481522,    5.9883337
   4524,   -12.685463,   29.7503624
   4525,  -14.5215054,   28.3041821
   4526,  -30.6136761,   2.76424098
   4527,   29.9477081,  0.504583597
   4528,    27.635643,    5.0549016
   4529,   32.6013222,   3.88504553
   4530,   32.5601196,   1.17160499
   4531,  -30.4365864,   4.65828323
   4532,  -28.0432854, -0.491318762
   4533,   26.6188965,    4.9698534
   4534,  -15.2807274,   28.4123192
   4535,  -26.2601948,  0.699210525
   4536,  -28.3155556,  0.701195359
   4537,   34.5638428,   2.07788873
   4538,  -32.2401161,   3.58896923
   4539,  -13.7381449,    27.607523
   4540,  -14.1480303,    30.038393
   4541,  -11.2563496,   32.4072037
   4542,   -10.067771,   30.9972267
   4543,  -29.9287491,   6.55023432
   4544,   32.5092392,  0.593155742
   4545,  -25.9618835, -0.459261239
   4546,   31.4542141, 0.0628815815
   4547,  -27.2483311,  -1.15006268
   4548,  -30.3022404,   7.36729288
   4549,   26.5528717,   5.60842133
   4550,   26.5187626,   4.19032478
   4551,   -15.724185,   29.3944721
   4552,  -13.9854727,   30.9252319
   4553,  -32.4950256,    2.7168467
   4554,  -31.7306824,   4.40283966
   4555,  -9.35499001,   30.6017742
   4556,   33.9744835,    1.2312603
   4557,   34.3239059,   2.89854836
   4558,   25.7313576,   5.09176731
   4559,   25.8739414,    5.8299222
   4560,  -13.0404072,   31.7365894
   4561,  -28.1390438,  -1.58965695
   4562,  -15.6027756,   30.2088146
   4563,  -16.0358181,   28.6523247
   4564,  -29.5237713,   7.52604961
   4565,   31.1742401, -0.711259604
   4566,   27.1272316,   3.21863818
   4567,  -26.1969795,  -1.35748136
   4568,  -32.0055237,   1.52819598
   4569,  -26.2215614,  -2.43167281
   4570,  -28.5974083,  -1.08866239
   4571,  -12.2600546,   31.6229782
   4572,   26.1514168,   6.48060799
   4573,  -25.2565651,  -1.29111636
   4574,  -14.8821802,   30.1342049
   4575,   26.2687397,   2.57351899
   4576,  -29.2558823, -0.739965081
   4577,  -31.2152615,   1.07548833
   4578,  -26.9061813,  -3.37371302
   4579,   27.0365448,    6.7981658
   4580,   25.3172417,   6.84989166
   4581,  -29.5908871,  0.324462563
   4582,  -27.6658802,  -2.97232246
   4583,  -29.9175835,   1.44338346
   4584,  -31.7395782,  0.269533813
   4585,   25.6950493,   7.56850719
   4586,   27.9929924,   6.53952932
   4587,  -32.2115784, -0.581881762
   4588,  -27.9068699,  -2.08930683
   4589,  -27.4896774,  -4.13118696
   4590,  -29.1143665,   1.09335661
   4591,   26.2032623,   8.22829819
   4592,  -32.5759277,  0.678996086
   4593,  -28.0399303,   -4.8457408
   4594,  -31.2712612, -0.917013943
   4595,  -26.2344341,  -3.87783766
   4596,  -28.2204781,  -3.65515351
   4597,     27.36693,   9.72453213
   4598,   26.4500961,   9.46221066
   4599,  -28.6330414,   1.89681089
   4600,  -27.2531719,  -5.31997967
   4601,  -30.0286255, -0.434002459
   4602,  -32.5011749,  -1.43870056
   4603,   28.3073902,   9.18191814
   4604,   -30.394701,  -1.23431408
   4605,  -28.5656528,  -5.56096601
   4606,  -33.4225998,  -1.26239824
   4607,    28.280241,   9.84605598
   4608,   28.0928917,   7.99725866
   4609,  -30.6741486,  -2.03720665
   4610,   28.8882656,    7.1031785
   4611,  -29.4078903,  -5.04954815
   4612,   29.9779644,   8.91892529
   4613,  -30.5746765,  -3.71235347
   4614,  -33.9765587,  0.507283628
   4615,  -30.3035393,  -4.45164537
   4616,    30.466629,    8.1033926
   4617,  -30.1702137,  -3.16896868
   4618,  -31.8859348,  -2.52963281
   4619,  -33.2430038,   1.12482727
   4620,  -34.2861519, -0.570878208
   4621,  -35.3231659,  -1.25211763
   4622,  -29.6538601,   -2.3996768
   4623,  -32.7550926,  -2.29753804
   4624,   29.4850674,   7.91637039
   4625,  -34.3819427,  -1.29923034
   4626,  -34.3697166,   1.21088982
   4627,   30.9797382,   7.26225424
   4628,  -28.9311562,  -3.12320709
   4629,  -34.4664268,   2.01436806
   4630,  -35.3402596,  -3.21964264
   4631,  -35.3010826,  0.882008791
   4632,  -34.4063416,  -2.94633317
   4633,   -33.603241,   2.09307051
   4634,   29.9284134,   6.70477057
   4635,  -8.57488728,   24.3016701
   4636,  -29.4572716,  -28.8894024
   4637,   29.6970997,   5.85365295
   4638,  -9.06343746,   25.0377884
   4639,  -30.7929268,  -27.3617687
   4640,   30.7145004,   5.32724857
   4641,  -8.20923519,   25.6930676
   4642,  -30.6584682,  -28.2260036
   4643,  -30.2578793,  -25.8850479
   4644,  -28.8410492,  -26.1311989
   4645, -0.0320829414,   17.9537525
   4646,  -21.7324467,   17.3060932
   4647,   -28.607748,   14.8366423
   4648,  -1.95706594,  -15.9960318
   4649,  -26.3918896,   11.9906702
   4650,  -18.0989857,   14.9094572
   4651,   32.1501007,   4.67338276
   4652,  -10.6816282,   21.7415257
   4653,   -24.717001,   2.67236042
   4654,    16.417799,   7.34423494
   4655,  -34.4602165,  -2.13811421
   4656,  -23.6757526,   -26.924427
   4657,  -8.66964436,   23.2061958
   4658,   24.1850872,  -34.3607712
   4659,  -11.3406992,   -12.312047
   4660,  -9.28384399,   16.6710529
   4661,  -17.0482845,   24.7403545
   4662,    20.894001,  -4.18575764
   4663,   3.02807689,  -33.8122559
   4664,    15.929369,  -33.9801826
   4665,  -10.6715145,   5.03168917
   4666, -0.780623376,  -34.4827156
   4667,   4.79144049,   -14.885272
   4668,   6.52778864,   21.0143814
   4669,   8.38998318,  -29.9816475
   4670,  -6.48891687,  -21.3542747
   4671,   12.1809883, -0.109525047
   4672,  -10.0955267,   4.83157921
   4673,   -22.055336,  -34.8332901
   4674,  -11.3655825,  -28.2469063
   4675,  -26.3722458,   17.8017941
   4676,   26.1947823,   15.0398026
   4677,   8.44122601,   13.9118843
   4678,   -27.912056,   16.8387775
   4679,  -9.78356266,   29.7877464
   4680,  -1.49347293,  -15.4356585
   4681,   -4.9643302,   31.9543877
   4682,  -6.80072832,   6.22658491
   4683,   2.10949087,  -20.3963699
   4684,  -33.4450722,   2.90285325
   4685,  -16.1484909,  -28.5404282
   4686,   22.4611187,  -4.50536966
   4687,   32.0545578, -0.922323465
   4688,   28.1901379,   10.6018124
   4689,  -30.0186996,  -30.0786247
   4690,   17.3640137,  -11.1171188
   4691,   22.1759109, -0.594690144
   4692,   2.87508154,  -25.1327305
   4693,    21.699337,   17.0771561
   4694,    27.905283,  -5.95690775
   4695,  -12.9464121,  -27.7791653
   4696,   26.9932327,   -28.639452
   4697,   12.5668755,  -24.1258488
   4698,  -26.0413647,  -13.1667519
   4699,  -32.1372795,  -3.35708833
   4700,  -19.2115879,  -27.7569962
   4701,  -18.3483467,   -15.721652
   4702,   -19.619421,  -29.5980015
   4703,  -32.2734909,  -32.7387199
   4704,  -13.0794363,  -21.1921997
   4705,   34.6439018,   1.22325349
   4706,   5.67924213,  -30.0926399
   4707,   13.9302473,   8.99990559
   4708,   1.61784542,  -32.5979462
   4709,   18.1522751,  -4.49441957
   4710,   13.9285994,  -31.9207821
   4711,   24.8683262,   5.28949928
   4712,   14.6755857,   6.64553261
   4713,   19.1318798,  -19.6475544
   4714,  -13.4247456,   26.9589558
   4715,  -15.5636721,   31.0409489
   4716,   22.5811806,   19.3016777
   4717,  -31.0090427,  -26.7268715
   4718,   17.1376228,   5.15697289
   4719,    12.797636,  -32.6614494
   4720,  -25.9998188,   -25.556181
   4721,   34.0589409,   -31.633564
   4722,   23.9856319,   5.49477577
   4723,   11.8625107,   -17.670311
   4724,   20.2729759,   2.55451107
   4725,  -9.70191383,   31.8708954
   4726,  -11.9330025,  -29.9276085
   4727,   11.2402611,   10.1422777
   4728,   30.5371037,  -2.25492811
   4729,  -30.7310123,  -5.33585835
   4730,  -17.5029011,  -21.4120941
   4731,  -32.4744873,   4.82481861
   4732,  -20.0688725,  -30.3223381
   4733,  -21.2203712,  -29.1026917
   4734,  -31.2718964,  -3.55372024
   4735,  -12.9008598,    32.660347
   4736,   13.5821133,  -23.3275509
   4737,   14.2498112,  -28.1381435
   4738,   24.2537441,  -22.9303284
   4739,   18.9126263,    -10.30264
   4740,  -5.87741327,   32.3422546
   4741,    28.288044,  -30.0718555
   4742,  -24.4451618, -0.993702173
   4743,  -3.84561586,   14.9342957
   4744,  -15.7070236,   -25.137249
   4745,  -8.22845268,  -25.3901768
   4746,   30.6618938,   8.72360706
   4747,  -3.19748569,  -29.8404598
   4748,   18.3264771,   19.8394375
   4749,   26.1699677,   1.80255115
   4750,     22.76721,  -22.7996864
   4751,   19.4076881,  -23.9889545
   4752,  -16.2799969,   29.5805721
   4753,   7.31722116,   17.0372162
   4754,  -9.68448925,   25.6728439
   4755, -0.466927469,  -19.8823872
   4756,   20.2607136,  -20.2550812
   4757,   14.3040371,  -23.5621262
   4758,   25.3437386,   1.22571766
   4759,   7.53978586,  -24.3150978
   4760,   -27.494091,  -34.9172325
   4761,  -28.5038013,  -9.93384933
   4762,   -26.442091,  -5.76561069
   4763,   4.92773533,  -29.3018627
   4764,   1.45682454,   22.0978603
   4765,   26.8629436,   1.64069653
   4766,   26.5477314,  -7.46113682
   4767,   3.34727073,   19.3456459
   4768,    1.3579936,  -24.5166969
   4769,   1.98441303,  -22.9363155
   4770,   13.3921576,   5.55858183
   4771,  -1.65719521,   24.3835964
   4772,   4.57675314,   18.2427502
   4773,  -11.0924368,  -30.2804375
   4774,   25.3485031, -0.0597586408
   4775,   7.63267088,   13.9323864
   4776,  -12.9729109,    17.566946
   4777,  -3.70372629,  -31.8375111
   4778,  -15.1088905,  -32.5840988
   4779,  -22.1389866,  -2.44529653
   4780,  -11.0928602,   -13.838975
   4781,  -26.5772839,  -9.85833263
   4782,  -9.53458691,  -35.0011749
   4783,  -28.7921009,  -2.04438019
   4784,   22.4819565,  -11.2329073
   4785,   21.8404179,  -33.7623177
   4786,   9.19026756,  -33.9900093
   4787,  -18.2950344,   14.0169506
   4788,  -24.3942356,  -7.70519733
   4789,   24.2028179,  -32.6613464
   4790,   21.7957878,  -11.1390619
   4791,   35.3139763,   3.24753141
   4792,   17.6417046,   2.93636274
   4793,  -19.5671024,  -17.1086521
   4794,   -7.2312212,  -16.1295528
   4795,   27.6739883,   2.27864671
   4796,   21.8802433,  -13.4407339
   4797,   11.7922897,   23.1511993
   4798,  -22.8035946,  -32.1885605
   4799,   24.3574677,  -7.37294006
   4800,    19.784977,   21.5645561
   4801,  -8.27184772,  -15.7922611
   4802,  -16.9056053,  -32.5796585
   4803,   10.2338219,  -18.3190384
   4804,  -24.6433811,   19.2068024
   4805,  -1.59199309,   22.8353214
   4806,   28.6536999,   12.2083158
   4807,   22.7245541,  -2.90392804
   4808,  -19.7444115,  -20.4089108
   4809,   12.7244616,  -29.5139751
   4810,  -7.73395586,   31.7529354
   4811,   31.8353195,   5.54202843
   4812,   15.2543335,   7.45647192
   4813,   31.7884464,   7.25402784
   4814,  -29.6332531,  -25.2469215
   4815,  -13.8066463,   23.7667103
   4816,   8.04689407,  -25.4769974
   4817,  -18.2956715,    10.023263
   4818,    15.418047,  -21.8595257
   4819,   14.7860422,  -30.8076591
   4820,  -1.29810393,  -22.1456795
   4821,   2.06955481,  -30.8179283
   4822,  -19.5944366,   22.3875523
   4823,   18.5764713,   4.67318153
   4824,  -20.0709858, -0.650895178
   4825,   35.6421738,  -21.5033207
   4826,   35.2799072,   22.0860043
   4827,   35.4707832,   28.3834095
   4828,   -22.189127,   35.4785461
   4829,  -35.6392326,   28.4262161
   4830,     -35.5611,   21.6048126
   4831,  -35.2430954,  -22.0884991
   4832,  -35.5045815,  -28.3707676
   4833,   35.2038002,  -27.6331902
   4834,   21.4418869,   35.5880737
   4835,   27.6447392,   35.5163498
   4836,  -28.2982311,   35.6813011
   4837,    35.341774,  -2.92833686
   4838,  -35.3298912,   2.85262442
   4839,  -3.49480987,   35.5501938
   4840,   2.60537505,   35.5262222
   4841,  -24.7787018,  -2.78791904
   4842,   13.2048073,   9.09703636
   4843,   -18.512928,  -0.21523349
   4844,  -27.7183418,  -24.3614254
   4845,  -2.77904892,   26.5711651
   4846,  -7.91805601,  -20.8043919
   4847,  -10.4725742,  -28.4852161
   4848,     25.48032,  -23.2042999
   4849,   23.9955368,   14.4149551
   4850,   8.06815815,  -22.0130291
   4851,   27.1201992, -0.437282056
   4852,  -29.5954895,  -1.47897172
   4853,   14.5550594,  -26.1165524
   4854,   12.5924444,  -34.5679245
   4855,  -21.8242817,   -3.5212357
   4856,   21.5759697,  -27.2438583
   4857,   35.5927315,   -4.8255744
   4858,   35.5498886,  -19.5643158
   4859,   35.5765915,    20.123909
   4860,     35.42976,   30.3884792
   4861,   4.54013729,   35.3730278
   4862,  -20.2782116,    35.594017
   4863,  -35.5536804,   30.3613434
   4864,  -35.5715752,    19.669241
   4865,  -35.3365936,    5.0044198
   4866,  -35.3075714,  -5.44824505
   4867,  -35.5579262,  -20.1298676
   4868,  -35.5009575,  -30.3399086
   4869,  -5.41117668,   35.4891243
   4870,   35.1987381,  -29.6952972
   4871,   35.3285561,   5.50571012
   4872,   19.5186787,   35.5686951
   4873,   29.5379276,   35.6654625
   4874,  -30.2623253,   35.5651665
   4875,  -32.5571823,  -34.5474892
   4876,   23.0424385,   3.68879795
   4877,  -28.0839558,  -12.3052788
   4878,  -30.4000416,  0.682263374
   4879,  -5.36365461,  -19.3808384
   4880,  -13.8787928,  -33.9119949
   4881,  -25.7528744,   1.51942158
   4882,    20.455122, -0.989623845
   4883,  -15.0648336,  -27.1538296
   4884,  -33.4711723,  -34.4496765
   4885,   -21.482357,  -2.80106854
   4886,   23.1331425,  0.615475774
   4887,  -10.0507584,  -32.0812645
   4888,  -15.5255909,   27.5539894
   4889,  -15.3163376,  -20.2694836
   4890,  -28.4951382,  -28.6740074
   4891,  -19.0529594,  -14.1863384
   4892,  -20.0573425,   21.4837513
   4893,  -32.5411072,   -35.486454
   4894,  -11.2365503,  -16.9439011
   4895,   20.0737152,  0.904219508
   4896,  -35.4154053,   32.3471756
   4897,   35.5138893,  -32.7954559
   4898,    32.428978,   35.5712509
   4899,      35.4361,   32.4284668
   4900,  -32.3378868,   35.3975105
   4901,  -35.4459915,  -32.3712349
   4902,   6.80179787,   35.4616623
   4903,   35.6263771,  -6.73880911
   4904,  -35.7297554,   7.81556129
   4905,   35.4617424,   7.50995302
   4906,  -7.32609367,   35.3383369
   4907,  -35.4387932,  -7.46632624
   4908,   35.6134453,   18.2131214
   4909,   -17.428772,   35.5794601
   4910,  -35.6432037,  -18.2254848
   4911,   35.4963303,  -17.5675621
   4912,    17.523695,   35.4729996
   4913,  -35.4954681,   17.6838837
   4914,   -23.560545,   11.3736677
   4915,   33.6302071,  -35.6304207
   4916,  -2.99064493,  -27.3930492
   4917,  -15.6108284,  -10.3008804
   4918,  -11.9800873,   29.5474052
   4919,   11.8939953,  -27.2712841
   4920,   8.34240341,  -20.5431118
   4921,  -10.4270859,  -25.7221889
   4922,   21.5186996,   1.34880948
   4923,  -14.3163671,   -16.144722
   4924,   15.3284969,    3.5256393
   4925,  -31.1762161,   7.15056181
   4926,   -21.766901,   -26.490942
   4927,   23.7995262,   18.0724316
   4928,   23.9454689,   -11.390933
   4929,   19.5039062,  -2.67505479
   4930,   9.64646626,   35.7556038
   4931,   35.5992813,  -9.62460327
   4932,   35.6149979,   15.3711233
   4933,  -15.5072031,   35.5540237
   4934,  -35.7123718,   9.69934368
   4935,  -35.6530647,  -15.3739252
   4936,   35.4081917,   9.49979305
   4937,   35.4834328,  -15.5472116
   4938,   15.4456034,   35.4459114
   4939,  -9.58188152,   35.1870651
   4940,  -35.4064903,   15.5980358
   4941,  -35.4303818,  -9.48443222
   4942,   -35.402359,   34.3946724
   4943,   34.4211349,    35.460144
   4944,   35.4208984,   34.4379158
   4945,  -34.4020004,    35.406395
   4946,  -35.4411049,  -34.4279442
   4947,   19.7117882,  -14.9309883
   4948,  -15.8879395,  -35.5117683
   4949,  -34.4799652,  -35.4600334
   4950,    32.328949, -0.140940741
   4951,   27.8576756,   14.9446049
   4952,  -5.55695438,  -27.5989017
   4953,    25.547945,  -27.6881199
   4954,   33.9525566,   3.66191387
   4955,   25.1590748,  -34.3643837
   4956,   -34.404583,   2.84676051
   4957,  -24.3844147,  0.738762438
   4958,  -20.4934654,  -27.9855881
   4959,  -11.8889151,    33.504303
   4960,   20.8772507,  -17.4278812
   4961,   18.8768616,  -31.7769375
   4962,  -11.8371487,   23.2534866
   4963,  -31.6636581,  -28.2840366
   4964,   -4.5743103,   29.3343906
   4965,  -9.75323677,  -24.7470798
   4966,   -26.706213,     9.546772
   4967,   19.1864014,  -4.93126488
   4968,   20.4361458,  -10.7962627
   4969,  -22.1290855,  -34.0400581
   4970,    29.189518,   9.78850365
   4971,  -13.8611784,   31.8176289
   4972,   6.20726633,   17.2948093
   4973,  -3.11302972,  -33.4660873
   4974,    24.167532,  -9.67037678
   4975,   12.0483341,  -26.3098335
   4976,   11.5405769,   35.6786079
   4977,   35.5475845,  -11.5655527
   4978,   35.5723305,   13.4274902
   4979,  -13.5745029,   35.5298462
   4980,  -35.6170197,   11.5970221
   4981,  -35.5882607,  -13.4374352
   4982,   35.4986725,  -13.5339041
   4983,   35.4426727,   11.4686613
   4984,   13.4492226,   35.5914993
   4985,  -11.6244297,   35.4494247
   4986,  -35.5095901,   13.5511398
   4987,  -35.4718246,  -11.4638414
   4988,  -17.6540432,  -24.4791832
   4989,    23.082531,  -24.5564709
   4990,  -20.0062885,   -35.460083
   4991,   -17.939106,  -35.4100609
   4992,  -24.5476761,  -27.5122414
   4993,   24.4403496,   7.23134756
   4994,   -2.0595057,  -28.3276958
   4995,  -22.8677807,   16.2147694
   4996,   1.04184103,  -35.6062241
   4997,   32.7275352,  -30.8576946
   4998,   19.8465233,  -19.4397526
   4999,   20.7471714,  -29.6370506
   5000,   21.4975872,  -5.85927391
   5001,   16.0537262,   3.08878636
   5002,   -8.4834919,    22.152071
   5003,   13.4225483,   -35.626297
   5004,   11.6354914,  -35.4132767
   5005,  -20.6900768,  -13.2925119
   5006,  -22.9024258, -0.480147451
   5007,     8.367836,  -27.7644558
   5008,  -12.0815144,   26.3540554
   5009,  -28.1899147,   -6.7562356
   5010,  -18.2314987,  -29.7136078
   5011,   6.38606882,   20.1865292
   5012,   -3.1606245,  -23.1186314
   5013,  -21.8137569,  -32.5191917
   5014,   5.91641617,  -23.6581287
   5015,  -15.1931849,   24.1963844
   5016,  -17.0020275,   28.4051533
   5017,   30.5387745,  -31.1690006
   5018,   9.54263401,  -22.3728542
   5019,  -22.9415989,  -11.6298208
   5020,   5.19904232,  -24.8596306
   5021,  -27.0319042,   13.9397669
   5022,  -13.8774137,  -16.7669983
   5023,  -17.8515987,  -16.5909729
   5024,   34.4843216,  0.384802073
   5025,   20.5539169,  -21.3509083
   5026,   4.67887211,   17.1283646
   5027,   7.45222712,  -31.0048428
   5028,  -13.0523844,   27.9570465
   5029,  -25.1594162,   6.31818295
   5030,   24.1357765,   2.18797779
   5031,  -7.47666168,    33.982235
   5032,   27.1428413,  -23.6858978
   5033,  -25.0982552,  -25.8452663
   5034,  -13.5432034,  -27.6632824
   5035,   14.6843929,   22.0328674
   5036,  -29.1823425,  -11.7824888
   5037,   2.68046951,  -29.3371239
   5038,   29.7308025,   13.8692665
   5039,   30.3032799,   9.81419563
   5040,  -31.7421646,  -31.6029205
   5041,  -21.4881401,  -30.5797749
   5042,  -8.49720573,   32.3168602
   5043,  -15.7961493,  -34.4891319
   5044,  -30.8186398,  -30.7095203
   5045,   15.8332367,   20.2418232
   5046,   34.4431877,  -32.2517471
   5047,  -26.6164074,  -35.7722168
   5048,  -5.22052193,  -20.4777908
   5049,   8.25462532,   13.0766916
   5050,   21.0751057,  -3.65532041
   5051,   26.2405338,  0.068107821
   5052,   21.7487221,  -4.00530672
   5053,   2.75375462,   20.4281616
   5054,   22.1091061,  -34.5643692
   5055,    9.9992857,  -34.9720306
   5056,    25.771574,   -7.4722333
   5057,   30.6324215,   14.0960436
   5058,  -12.1274605,  -16.5519028
   5059,  -19.3939095,  -21.0982323
   5060,    17.571888,   4.07111073
   5061,  -28.0976486,   9.40906715
   5062,  -29.6075191,  -24.4223576
   5063,   26.0491276,   1.10120976
   5064,  -14.5923491,  -26.6746712
   5065,  -15.0459442,  -21.0862122
   5066,   14.4136658,  -22.9715137
   5067,  -17.8851337,   9.38701344
   5068,   4.86627722,  -25.1964703
   5069,  -14.6421652,   32.7560616
   5070,   26.1851692,  -26.9400425
   5071,   25.8766384,  0.574522257
   5072,   24.3740902,   15.4581966
   5073,  -14.3938274,  -14.5990543
   5074,  -25.4504566,   19.1827717
   5075,  -31.7124996,   7.48446178
   5076,   29.3761444,  -4.83521271
   5077,  -20.4083977,  -17.7457581
   5078,  -33.1335754,  -3.20798826
   5079,  -10.1679049,   22.4684067
   5080,   24.2859669,  -33.3420601
   5081,  -23.9440308,  -2.48293376
   5082,   13.3794136,  -29.9766121
   5083,  -14.6874876,  -33.7845535
   5084,    24.157402,   6.39098215
   5085,   22.1019859,  -3.19678998
   5086,   33.2674217, -0.298801988
   5087,   22.1268005,  -22.4235401
   5088,   13.8982868,  -30.3077679
   5089,   21.6253414,   20.8180599
   5090,  -27.1400013,  -13.0665388
   5091,    1.6837678,  -31.4504395
   5092,   13.3796949,  -26.2292347
   5093,   32.7452888,   5.73578835
   5094,   22.5457268,  0.903921843
   5095,   25.1938972,  -22.3810539
   5096,   13.5008869,  -33.7758789
   5097,   23.8466187,   19.3469677
   5098,  -19.6641636,  -16.4435883
   5099,  -28.5307636,  -8.91868019
   5100,  -27.6567421,   11.8713131
   5101,   30.1819973,   14.7223082
   5102,   31.0985451,   9.29967976
   5103,  -15.0660782,   26.6795864
   5104,  -19.7461052,  -28.4476681
   5105,  -15.5432024,   31.8940353
   5106,   5.44607687,   -28.476778
   5107,   21.6688595,   -17.065937
   5108,  -17.6681557,   14.3650265
   5109,  -4.07778645,    32.551445
   5110,  -31.7536945,   5.51451588
   5111,  -3.94312978,  -26.3505306
   5112,   27.5634632,  -7.34689856
   5113,  -5.26803493,   33.5064316
   5114,   27.6695824,  -25.9821453
   5115,   13.7904177,   4.80366611
   5116,  -2.77577996,  -30.7636166
   5117,  -29.4801884,   8.89713669
   5118,  -29.7352104,  -9.25846863
   5119,    20.498848,   1.21004462
   5120,   30.2641659,  -3.01954937
   5121,  -14.8348303,  -34.6827354
   5122,   6.54457474,   -30.041357
   5123,  -6.92408943,  -25.7676678
   5124,   28.5872192,  -29.1500149
   5125,  -11.1842918,  -26.5462532
   5126,   19.6660175,   2.85228419
   5127,  -20.2443409,  -34.2921448
   5128,     32.97995,  -30.2194138
   5129,  -22.5303326,  -25.6290417
   5130,  -17.0650978,   30.1040421
   5131,  -27.6030483,   13.1464024
   5132,  -1.82887053,   -34.111969
   5133,  -32.3717651,  -4.93603706
   5134,  -33.0372696,   5.35770082
   5135,  -13.6853075,    33.638443
   5136,  -31.6599407,  -26.5783863
   5137,  -11.6059666,  -29.0943127
   5138,  -34.3058929,     3.587466
   5139,  -21.8849182,   34.5245209
   5140,  -34.5715294,   21.6454868
   5141,   34.1612396,   -27.850872
   5142,   34.7156487,  -21.5140953
   5143,   34.3956299,  -3.36469293
   5144,  -3.48707247,   34.6066589
   5145,  -28.1921425,   34.7937889
   5146,  -34.2693253,  -21.6435356
   5147,  -34.7160492,   28.3615799
   5148,   34.2916756,   21.6545315
   5149,   21.3993244,   34.6454277
   5150,   2.79050779,   34.8561363
   5151,  -34.5336647,  -28.3250141
   5152,   34.5586357,   28.2987823
   5153,   27.8196754,   34.6586075
   5154,   31.3709278,  -2.45811558
   5155,  -15.2505655,  -24.4472046
   5156,   -1.9036684,  -29.8594608
   5157,   25.5585232,  -8.17758751
   5158,   4.45985222,  -24.6255493
   5159,   19.7387276,   1.76813316
   5160,   12.6258593,  -25.5949898
   5161,   23.8749065,   3.67412639
   5162,  -7.58243275,  -24.8800163
   5163,   -29.945528,  -5.82739735
   5164,  -4.84335136,   27.1593113
   5165,  -9.31625652,   32.7923241
   5166,   20.7398567,  -10.0827885
   5167,  0.677602232,   22.7098904
   5168,  -25.8698292,  -7.05249691
   5169,  -24.7012997,   11.3443604
   5170,   14.7049685,   5.02265453
   5171,  -33.9199638,   4.71987391
   5172,  -28.9537506,   14.0141659
   5173,   11.7587767,   24.2009506
   5174,   32.5773239,  -1.94613492
   5175,   34.1574249,  -29.6077633
   5176,  -20.1458206,   34.6386452
   5177,  -34.3285866,   5.46213484
   5178,  -34.6121445,   19.7180576
   5179,   34.6776695,  -5.01077461
   5180,  -34.3060036,  -5.60161638
   5181,   34.5717659,  -19.6040993
   5182,  -5.34912777,   34.4870415
   5183,  -34.6415329,  -19.9143562
   5184,   34.6726837,   19.9229832
   5185,   19.5396233,   34.5876236
   5186,  -30.0440712,    34.685585
   5187,   -34.620327,    30.226923
   5188,   5.14585638,   34.0387306
   5189,    34.415947,   5.70819473
   5190,  -34.5442848,  -30.2479668
   5191,   34.3930664,   30.3487053
   5192,   29.5457287,   34.7699356
   5193,   6.52164316,  -31.9672832
   5194,  -31.5374088,  -5.02488852
   5195,  -7.16570663,  -21.0778694
   5196,  -3.34527826,   26.0517673
   5197,  -10.1423931,   23.6352119
   5198,  -25.6992474,  -24.8664761
   5199,   23.0251141,  -21.6367073
   5200,   33.5560493,   5.25183249
   5201,   28.5374565,  -6.57142782
   5202,  -16.4757252,   26.7035332
   5203,  -30.1041203,   8.25191975
   5204,   2.30284834,  -25.7734356
   5205,  -20.0024681,   -33.234024
   5206,  0.934927106,    -23.94174
   5207,   3.10959482,   21.1970634
   5208,  -25.5035839,   18.1413364
   5209,   -14.104847,  -21.8292809
   5210,   35.5158043,   1.29136968
   5211,  -29.4864788,   15.1127148
   5212,   27.8760033,  -28.6041012
   5213,  -12.0820131,  -27.2066078
   5214,  -4.84852982,  -26.5133476
   5215,  -27.2251511,   17.2895889
   5216,   22.3467197,  0.160784885
   5217,  -23.4555321,  -26.2572346
   5218,  -34.8525009,   7.99009466
   5219,  -17.3957939,   34.6256943
   5220,  -34.5739822,   17.8584366
   5221,  -7.03454113,   34.5643806
   5222,  -34.4393425,  -7.45810127
   5223,   34.4981079,  -17.5998268
   5224,  -34.7108421,   -18.092535
   5225,  -27.5666904,  -35.7451172
   5226,   34.6425018,   18.0840588
   5227,   17.6107521,   34.5205879
   5228,   34.6906815,  -6.83998966
   5229,    7.2193222,   34.5593987
   5230,  -34.4448509,  -32.2820396
   5231,  -32.2506332,   34.3409348
   5232,  -34.3338623,   32.2118073
   5233,  -14.1518679,   26.5215797
   5234,   34.4890442,   7.50548267
   5235,   -22.722105,   -3.0203557
   5236,   34.4132195,    32.379631
   5237,   32.3196335,    34.616848
   5238,   15.9427414,   6.69250774
   5239,  -26.4855423,  -14.0765076
   5240,   22.1238632,  -12.6083755
   5241,  -23.4506111,  -1.46520042
   5242,  -18.9736767,  -21.8116608
   5243,   4.39560509,   19.8890858
   5244,   12.9472399,  -31.7047615
   5245,    -19.29739,  -26.5242481
   5246,  0.653456211,  -32.2123985
   5247,  0.176422477,  -34.6343231
   5248,   13.7043571,  -27.4207077
   5249,   13.9355736,  -29.3580494
   5250,   23.0005131,  -12.0468588
   5251,  -11.4645777,   26.0439396
   5252,   13.6089745,  -32.8791962
   5253,   24.6963615,  -22.1588287
   5254,    8.1077528,   21.8991127
   5255,   27.2806206,    15.728548
   5256,   19.5848827,  -3.47191572
   5257,  -34.4324493,  -34.4124985
   5258,   21.6770458,  -20.0262165
   5259,  -25.3987255,   -7.9319396
   5260,  -21.3663559,  -11.4552011
   5261,   4.98735762,   18.9399509
   5262,  -12.8167963,   23.7365417
   5263, -0.933581114,   25.9217396
   5264,   1.20018876,  -25.6590462
   5265,  -3.43471217,  -32.6404457
   5266,   7.16514158,  -27.5567913
   5267,   17.0623932,   3.39623141
   5268,  -34.8015633,   9.78511333
   5269,   -15.514719,   34.6013832
   5270,  -34.3733521,    15.606101
   5271,  -9.84071445,   34.1291542
   5272,  -34.3672485,  -9.46900082
   5273,   34.4685707,   -15.573122
   5274,  -34.7280579,  -15.3406639
   5275,   34.6367035,  -9.66978836
   5276,   34.3311691,   9.47873783
   5277,   34.6707954,   15.3137445
   5278,   15.3314514,   34.4136429
   5279,   9.68458271,   34.8968925
   5280,  -34.3518639,   34.3527832
   5281,   34.3646469,   34.4206581
   5282,  -30.0075417,   -12.142292
   5283,  -15.6188879,    25.875164
   5284,   5.83031082,  -24.4132729
   5285,   2.17599034,  -28.3016682
   5286,  -12.1986036,  -27.9993992
   5287,  -2.62124109,  -23.6572609
   5288,  -8.18159103,  -24.2138596
   5289,   27.5620937,   -22.986414
   5290,  -14.3003206,   24.6037178
   5291,  -21.5860882,  -12.5534458
   5292,   21.8931561,  -15.9175644
   5293,  -15.2211857,  -14.4690647
   5294,   -31.820694,  -29.9887676
   5295,  -17.1057072,   -23.819685
   5296,  -32.6806717,  -30.9609909
   5297,  -1.19943321,   -28.727457
   5298,  -1.03020751,   23.8397274
   5299,  -28.6487751,  -7.50075245
   5300,   7.36537838,  -28.8818531
   5301,  -9.72516155,  -21.9601479
   5302,   5.26038218,   19.6495743
   5303,   12.3426371,   9.20349121
   5304,   1.10657609,  -34.6531868
   5305,  -27.3791656,  -7.21109867
   5306,  -3.13500881,   30.5503654
   5307,  -34.3862305,  -33.3417091
   5308,  -17.4437294,   27.4957561
   5309,  -23.8090687, -0.0415155739
   5310,     13.47542,  -24.1002541
   5311,   -8.9611578,  -22.1091499
   5312,  -17.7266521,   29.1471901
   5313,   34.2543678, -0.512145996
   5314,  -19.1067467,  -34.3867722
   5315,   24.4162922,   18.8567085
   5316,  -9.09916782,   22.6287346
   5317,  -26.4873638,  -24.3691654
   5318,  -32.5821877,  -27.4096031
   5319,   -22.008955,  -33.2915878
   5320,    30.950182,  -30.2828789
   5321,  -20.9747467,  -14.0493011
   5322,  -34.5174561,   13.5523767
   5323,  -34.6556015,   11.6221886
   5324,  -11.7418203,   34.4661484
   5325,  -13.6255579,   34.5736809
   5326,  -34.6308594,  -13.4530983
   5327,  -34.4060097,  -11.4898815
   5328,   34.5258522,  -11.5769424
   5329,    34.463932,  -13.5433922
   5330,   34.6413422,   13.4270964
   5331,   34.3731384,    11.504427
   5332,   11.5401316,   34.7594681
   5333,    13.374671,   34.6559486
   5334,   31.7770805,   6.41892242
   5335,    20.753912,   22.3074703
   5336,  -1.07142723,  -27.2784882
   5337,   29.6727734,   -30.066124
   5338,   32.1699333,   -29.492506
   5339,  -10.7985992,   34.3367882
   5340,   20.9491692,  -15.6182995
   5341,   28.6288033,   15.1727314
   5342,   3.89180493,  -28.0956135
   5343,  -18.3535042,  -23.8130245
   5344,   27.4138851,   -24.884901
   5345,   -13.856904,  -26.9855175
   5346,   24.7279968,   2.80632877
   5347,  -10.6252518,  -12.1177197
   5348,  -29.5633144,  -10.9902716
   5349,  -10.0833187,  -23.8306484
   5350,  -11.9541855,   25.4661274
   5351,  -24.2540836,  -26.0594959
   5352,  -19.0308704,  -15.7096939
   5353,   15.6339235,   4.44169283
   5354,  -28.5138683,  -23.8933067
   5355,  -6.26853466,    34.460434
   5356,   7.29042339,  -25.1009254
   5357,   32.5501175,   8.20265675
   5358,  -22.3118324,  -31.5551777
   5359, -0.555557191,   24.7969456
   5360,   24.7955761,  -11.5059023
   5361,   18.9967232,   21.8889084
   5362,  -31.7009258,  -29.1427021
   5363,   24.1496353,   8.43467808
   5364,   14.0356646,   22.6862659
   5365,    15.495368,   21.4735012
   5366,   21.1192837,   -10.987649
   5367,  -1.07161963,  -23.8726864
   5368,  -20.2677116,   22.8448067
   5369,   24.7702751,   4.45634794
   5370,   14.3054905,   -34.784977
   5371,   7.44479275,  -29.9849873
   5372,   25.3001995,   15.2204466
   5373,   24.5030022,   17.6509666
   5374,   21.2794647,  -1.19733632
   5375,   22.0745525,  -1.38334167
   5376,  -25.3641415,  -13.8604059
   5377,  -26.5934486,    17.006218
   5378,  -16.8059139,   -21.867897
   5379,  -28.8800774,   17.9866199
   5380,   19.1345997,   -27.186882
   5381,   18.9720669,  -4.28580713
   5382,  -24.8892555,   5.04606056
   5383,  -23.4743881,  -12.1145287
   5384,   21.6179676,  -14.7421484
   5385,  -12.9061651,   26.3991985
   5386,   -5.8700285,  -25.7704754
   5387,  -10.5618801,   24.0097294
   5388,   15.1634703,    -34.84272
   5389,   6.63980246,   21.9684982
   5390,   31.3091335,   11.5327578
   5391,  -25.5062714,  0.315336287
   5392,  0.778229654,  -22.6197567
   5393,     15.65973,  -24.6820717
   5394,   15.4703064,  -28.6462574
   5395,   31.5647011,  -32.3576202
   5396,  -3.06968641,  -31.6418686
   5397,   10.9231443,  -21.5181141
   5398,  -14.8317165,  -25.8327274
   5399,  -13.7672043,   32.7258873
   5400,  -9.69352627,   24.3298244
   5401,  -21.4612637,  -34.1091766
   5402,   16.7723331,   4.60779047
   5403,   22.8250561,  -32.8104515
   5404,  -16.4993839,   -20.440918
   5405,   9.99817085,   22.2640266
   5406,  -23.8615723,   4.12109756
   5407,   7.44684029,   15.8531218
   5408,   6.76381969,  -23.9800949
   5409,  -24.4965172,  -11.8055534
   5410,    23.755043,  -1.71219301
   5411,   -27.072834,   11.3190718
   5412,  -25.6727505,   3.96101022
   5413,   17.7362366,   21.2942104
   5414,   23.0865002,  -34.2282028
   5415,  -33.4800529,  -32.1393394
   5416,  -12.3999691,  -15.8320665
   5417,   32.4444809,  -3.94317603
   5418,  -15.9197645,  -20.4832497
   5419,   11.6677427,   -21.729969
   5420,   1.11047447,  -33.7244148
   5421,   29.2830276,  -27.9230995
   5422,   33.1435509,  -29.5276279
   5423,  -24.1923122,  -12.4705868
   5424,  -29.2769356,      13.3132
   5425,  -24.8092785,   4.07224989
   5426,  -3.24068999,   27.2950802
   5427,   22.7900238,  -2.27746582
   5428,  -30.7178402,   9.97052288
   5429,   28.3293381,  -7.88392305
   5430,  -23.7508659,  -13.1553535
   5431,  -28.8134537,   10.3808374
   5432,  -31.7290173,  -5.60509729
   5433,   -5.8265543,  -19.9640064
   5434,  -12.7834969,   24.2977638
   5435,   21.2043381,  -2.92915559
   5436,   17.8666077,   3.40103483
   5437,   8.81582928,   22.4464417
   5438,   9.63531113,   23.1971378
   5439,   4.47981215,  -25.6866207
   5440,  -15.5330143,   32.7739906
   5441,   14.0939417,   -25.006319
   5442,   13.0675335,  -30.7747116
   5443,   26.8183346,  -26.9748859
   5444,   21.0618877,  0.983765364
   5445,  -28.2166576,   12.3867817
   5446,   14.3884869,  -30.0215759
   5447,   23.4369774,   1.25654078
   5448,  -15.6866732,   26.7226181
   5449,   1.38691354,  -30.3868904
   5450,   23.4769001,  -33.2145233
   5451,   25.7932053,  -22.7340832
   5452,   28.9535542,  -5.68624163
   5453,  -28.0177364,  -13.0031071
   5454,  -30.7017879,   7.74529028
   5455,  -7.33595657,  -21.8979912
   5456,   5.65442038,  -29.2407398
   5457,  -3.05636287,  -26.1970596
   5458,   12.9540291,  -26.8451614
   5459,   13.4468498,  -34.6950569
   5460,   26.3677177,  -8.28592205
   5461,   20.3327713,  -3.49402523
   5462,  -20.2252865,  -26.8417835
   5463,  -11.2012081,   -25.698494
   5464,    25.828434,  -9.88920498
   5465,  -29.0036869,   9.64035225
   5466,  -15.4877529,  -33.5101776
   5467,  -18.7507191,  -25.8031216
   5468,  0.465421706,  -30.8477535
   5469,   27.3075695,  -26.3583527
   5470,   3.42297602,  -25.7211056
   5471,  -17.9958992,   25.5356064
   5472,  -12.0403948,   23.9909782
   5473,  -20.9692612,  -26.2950897
   5474,   -13.299613,  -21.9311829
   5475,   22.3224945,   -11.912611
   5476,   22.0570393,   20.0536976
   5477,   -34.122921,   -3.6323278
   5478,    32.963089,  -1.13501298
   5479,  -3.48955417,  -24.1767845
   5480,   22.4071712,  -20.6577721
   5481,   25.3439941,   -21.898737
   5482,   23.9496765,   2.82585812
   5483,  -12.8996754,  -26.2417164
   5484,   14.3072023,  -33.9155388
   5485,  -10.8528194,  -21.2657776
   5486,  -12.6824245,    34.538372
   5487,  -30.6073647,   14.4093552
   5488,  -19.7822628,  -27.2667351
   5489,  -21.4074993,  -14.8113089
   5490,   1.56206429,  -28.9253101
   5491,  -4.09488964,  -25.4047127
   5492,  -21.0321503,   34.6059036
   5493,  -34.5709305,   20.6670074
   5494,    34.225605,  -28.7289696
   5495,   34.6402092,  -20.5655613
   5496,   33.6518631,  -4.44492817
   5497,  -4.41114712,   34.5595589
   5498,  -29.1013298,   34.7830925
   5499,  -34.6812706,   29.2818222
   5500,   -33.685524,  -20.5162354
   5501,   33.7708359,   20.5395088
   5502,   -18.044632,  -34.3727112
   5503,   20.4644165,   34.6207161
   5504,   4.29638815,   34.3824539
   5505,  -34.5533295,  -29.2803745
   5506,  -1.25990701,  -26.1167793
   5507,   34.2588577,   29.2911549
   5508, -0.494530827,   -33.658287
   5509,   28.6643505,   34.7206726
   5510,   6.32134104,  -25.3948479
   5511,   27.8402481,  -22.1811886
   5512,  -11.4579144,  -23.9580612
   5513,   4.96598101,  -27.8975525
   5514,  -29.6010456,  -12.8199663
   5515,  -29.4896355,  -7.04212475
   5516,   12.6952772,   24.3313484
   5517,  -18.9092522,  -24.4515228
   5518,   23.7039165,  -12.2147732
   5519,   25.4749851,  -11.1903906
   5520,  -18.3233852,   34.6428566
   5521,  -34.6076736,   6.27124691
   5522,  -34.7012978,   18.8109264
   5523,   34.7189674,  -5.90630674
   5524,  -34.3963547,  -6.51655912
   5525,    34.527832,   -18.606102
   5526,  -34.6934509,  -19.0100899
   5527,   34.6790047,   19.0145798
   5528,  -31.0841103,   34.3217659
   5529,  -34.4922867,   31.2080326
   5530,   18.5977154,   34.5795517
   5531,   6.47590685,   34.1152954
   5532,   34.4989357,   6.58705807
   5533,  -34.5110931,    -31.24757
   5534,   34.4468002,   31.3596497
   5535,   31.3616219,   34.7561264
   5536,  -33.9730721,   8.97970676
   5537,  -16.4567356,   34.6209564
   5538,  -34.2380486,   16.7925014
   5539,  -3.42076111,   29.2309513
   5540,  -34.4264984,   -8.4511261
   5541,   34.4808655,  -16.5874691
   5542,   5.46378517,   20.3766804
   5543,  -34.7276726,  -17.1845169
   5544,   34.6340752,  -7.76860189
   5545,   34.6203995,   17.1600266
   5546,   32.0379257,  -30.1366653
   5547,   16.4657249,   34.2065926
   5548,   8.84173203,   34.9769096
   5549,  -33.3063164,     34.33255
   5550,  -34.3146095,   33.2774467
   5551,   34.4265518,   8.47182465
   5552,   33.5813217,   5.84015703
   5553,   34.3342743,   33.3885384
   5554,   33.3113594,   34.4574509
   5555,   35.2730598, -0.678523421
   5556,  -27.3169384,  -13.8546801
   5557,   22.5289631,  -13.3135653
   5558,  -34.7321281,   10.7010975
   5559,  -14.5713081,   34.5972443
   5560,  -34.4526367,   14.5609407
   5561,  -27.2146378,  -23.7159424
   5562,  -34.3095131,  -10.4833326
   5563,   34.4579659,  -14.5571737
   5564,  -34.6965027,  -14.4079103
   5565,  -19.5789185,  -22.2625198
   5566,   25.0433674,   18.4651146
   5567,   34.5824928,  -10.6188498
   5568,    34.268795,   10.4905386
   5569,   34.6888428,   14.3762083
   5570,   14.3276691,   34.5602188
   5571,    10.604434,   34.8270302
   5572,    29.438488,   15.4096403
   5573,  -33.6177635,  -30.1520844
   5574,  -31.0943832,  -31.4317417
   5575,   16.3632221,   20.9573288
   5576,  -15.8446894,  -21.2500057
   5577,  -17.9136791,  -21.9663639
   5578,  -34.5866051,    12.577898
   5579,  -25.8644447,  -14.2768097
   5580,   -24.588131,  -13.4916353
   5581,   -34.526413,  -12.4855299
   5582,   34.4805489,  -12.5534248
   5583,   32.6414108,    7.3509202
   5584,   34.5244751,   12.4891233
   5585,  -32.6303215,  -28.2910614
   5586,   12.4504023,   34.7092285
   5587,   19.5463676,   22.8918571
   5588,   -22.434473,  -24.7333565
   5589,  -13.8252888,   25.8491096
   5590,   24.5428715,  -21.5828419
   5591,   24.7310505,   3.61858201
   5592,  -28.0184383,   17.9786606
   5593,  -29.8835869,   17.1260223
   5594,  -4.96785736,  -25.6133785
   5595,   15.3231316,    22.674551
   5596,   0.25992474,  -33.0567398
   5597,   26.5421295,     15.94662
   5598,   31.4253979,   12.2003155
   5599,   23.9544983,   16.7601833
   5600,   7.39616585,   22.6006107
   5601,   5.62805796,   21.8344383
   5602,  -2.70053816,  -32.1978455
   5603,   6.17556763,  -28.0897789
   5604,   31.9410725,   11.1148853
   5605,  -19.7591534,  -15.1003551
   5606,  -26.6377926,  -7.70165062
   5607,  -20.7479763,  -29.8238544
   5608,  0.538789451,  -23.3595276
   5609,  -31.6765308,   6.54119682
   5610,   31.5048218,   13.9051456
   5611,  -8.89704418,   33.7752609
   5612,   16.8571682,   21.7161884
   5613,  -26.0868816,   18.5594788
   5614,  -27.9284534,  -7.97248268
   5615,  -14.9091711,  -22.0103436
   5616,  -21.6307888,  -17.5717144
   5617,   31.0954933,    14.921627
   5618,  -15.4297934,   25.0685577
   5619,  -4.52612162,  -20.1577721
   5620,  -30.5748596,   -24.332098
   5621,  -13.8103476,  -26.0490036
   5622, -0.0881917924,   26.1312256
   5623,   -3.6601119,   28.0179043
   5624,   5.17601347,  -26.1912098
   5625,   13.6880684,    23.547369
   5626,   14.2241488,  -24.2889938
   5627,  -11.6059074,   24.9916649
   5628,  -5.05416441,   32.6073341
   5629,   -20.721302,  -15.0866508
   5630,  -30.4992447,  -8.79981804
   5631,  -20.1758003,  -29.1696301
   5632,  -14.1852369,  -23.9070339
   5633,   30.3363762,  -4.47629309
   5634,    -24.17346,  -4.15977192
   5635,  -32.3851738,  -25.6743641
   5636,   24.4830551,   19.9873123
   5637,   22.3849468,  -15.3735085
   5638,    26.090023,  -9.10666561
   5639,   16.1108208,   5.24252558
   5640,   28.4059219,  -27.3823719
   5641,   28.9482365,  -7.32009315
   5642,  -31.3782654,   9.24835777
   5643,  -1.76456904,   -23.722477
   5644,  -3.43812442,   32.9998474
   5645,  -32.5048904,  -26.5260201
   5646,  -24.0860844,  -25.3816719
   5647,  -22.4241123,  -13.2232342
   5648,  -25.9336948,   -23.744072
   5649,   17.8571587,   1.24332845
   5650,    1.6679318,  -26.3817768
   5651,  -9.66456318,  -22.5411453
   5652,   3.15279126,  -27.6886959
   5653,  -30.1642704,  -11.5735235
   5654,   28.5256977,  -23.5224209
   5655,   -18.426445,   28.2357388
   5656,  -7.76174879,  -23.5627804
   5657,   32.3205376,   9.06420231
   5658,  -15.9039192,  -23.7972355
   5659,  -0.40285179,  -27.6419029
   5660,  -9.38643646,  -23.2780361
   5661, -0.589843571,  -29.6772308
   5662, -0.267216653,   26.9678059
   5663,  -17.7833519,  -23.1864204
   5664,  -22.6236954,   34.3398094
   5665,   33.9013519,  -27.0341988
   5666,  -34.6016273,   22.6162148
   5667,   34.7824135,   -22.423008
   5668,  -27.2854614,   34.7670822
   5669,   34.0532265,  -2.67606258
   5670,  -2.55697513,     34.59655
   5671,  -34.7474365,   27.4218178
   5672,  -33.8269501,  -22.3641605
   5673,   33.8676491,   22.3684711
   5674,   22.3375301,   34.6079979
   5675,  -34.5010605,  -27.3818913
   5676,   34.4941978,   27.3805695
   5677,   27.1133423,   34.5716743
   5678,  -3.18238378,    31.919735
   5679,  -17.8525238,   30.0215588
   5680,   21.7779179,   22.2712231
   5681,  -30.1566429,   16.2169533
   5682,    28.162281,  -25.4798241
   5683,   27.8167591,   15.5176468
   5684,  -30.6349258,  -9.77429008
   5685,   2.02671242,  -34.6425858
   5686,   -29.408226,  -23.5688877
   5687,    29.929348,  -28.9821434
   5688,   18.1509705,   22.2073917
   5689,   10.8242168,   24.1595402
   5690,   27.6010513,  -9.43062878
   5691,   26.6423893,  -10.0974131
   5692,  -27.0332737,   19.0529766
   5693,  -26.6570072,  -8.61300564
   5694,   13.1099615,  -25.0485249
   5695,   5.55514669,  -27.3322945
   5696,  -11.9870358,  -24.8683681
   5697,  -1.94788599,   32.5118103
   5698,  0.654522181,   26.4446373
   5699,  -2.16320276,  -25.9392586
   5700,  -19.4122868,  -25.1892414
   5701,  -2.63047409,   27.7514515
   5702, -0.559940577,  -32.6461792
   5703,  -28.9957657,  -13.4034986
   5704,   26.9898682,  -21.7825794
   5705,  -1.05749488,    23.126585
   5706,   1.15706944,  -29.3386002
   5707,  -23.2101917,  -13.9983521
   5708,   22.9757938,  -17.2972965
   5709,   22.2722034,  -19.3049068
   5710,  -28.4133377,  -14.2747107
   5711,   15.8448601,   23.2582779
   5712,    3.7266407,   21.9718323
   5713,  -15.3153143,  -23.2168655
   5714,  -33.6708031,   11.6320467
   5715,  -33.5263176,   13.5472126
   5716,   33.3900452,  -13.5607729
   5717,  -33.3022118,  -11.6153584
   5718,  -33.6840858,  -13.5196991
   5719,   33.4511909,  -11.5588055
   5720,   33.2979774,   11.6563768
   5721,   13.2675953,   33.7485008
   5722,   11.5178919,   33.8294754
   5723,   33.7911911,    13.467351
   5724,   26.0633335,  -20.5739803
   5725, -0.095397532,  -30.1481686
   5726,  -20.3115597,  -22.6416149
   5727,  -33.2171135,  -4.89088821
   5728,   17.6283379,   23.3871784
   5729,  -3.55782795,  -19.8444157
   5730,  -1.28307045,  -24.6137066
   5731,   30.0391979,  -5.57128477
   5732,  -8.07221889,  -21.6206818
   5733,  -23.1571407,  -4.87891579
   5734,  -27.4922466,  -9.11497879
   5735,  -17.3101425,    26.601593
   5736,  -13.9532166,    -22.65769
   5737,    13.647172,   24.5029945
   5738,  -22.2462711,  -14.4724121
   5739,   22.3210068,  -14.2022867
   5740,  -10.8941813,  -23.0300083
   5741,   1.44656599,   -28.366087
   5742, -0.197005838,  -26.6299877
   5743,  -16.4245892,   32.7801208
   5744,  -15.8759995,  -22.2969933
   5745,  -20.6011715,  -21.7866364
   5746,  -30.4072762,   15.3079481
   5747,   9.88269997,   24.2704906
   5748,   28.6944714,  -22.5232162
   5749,  -24.2181225,  -14.1966124
   5750,  -30.2536869,  -13.2550764
   5751,  -29.8809414,   18.1959305
   5752,  -31.1569061,  -9.27070522
   5753,  -25.5336704,  -22.6847668
   5754,  -18.6780758,   29.9630108
   5755,   28.8694973,  -26.1837826
   5756,  -33.4578133,  -26.4845715
   5757,  -26.3291397,   19.7936077
   5758,  -21.6309834,   33.5619354
   5759,  -33.5703621,   21.6763287
   5760,   33.1882324,  -28.0356407
   5761,    33.790741,  -21.5410614
   5762,  -19.1437836,   33.6849594
   5763,   33.5118942,  -3.75744963
   5764,  -33.4576836,   5.95725393
   5765,  -34.0072899,   18.8561611
   5766,   11.6952076,   25.2254238
   5767,  -28.1133442,   33.9056206
   5768,  -33.7901573,   28.2745819
   5769,  -33.3261833,  -5.71317196
   5770,  -33.4822044,  -21.2213612
   5771,   33.4433746,   21.1983967
   5772,   21.3615437,    33.742157
   5773,   3.13054156,   33.8990059
   5774,  -22.0155659,  -16.4606762
   5775,  -33.9307785,   7.37951422
   5776,  -17.3565712,   33.6930542
   5777,  -33.4128456,   17.5195522
   5778,  -30.4180546,   33.7739868
   5779,  -33.7692757,   30.0513935
   5780,   33.6766777,   28.7006054
   5781,   27.8088551,   33.7945442
   5782,     5.863729,   33.3702621
   5783,  -33.8790436,   9.85030174
   5784,  -15.5231199,   33.6820374
   5785,  -33.3574371,   15.5072041
   5786,   5.54733896,   22.4123287
   5787,   -13.417078,  -24.4576817
   5788,  -32.7057953,  -30.0581551
   5789,  -33.8059692,  -15.3287363
   5790,    7.7121191,   33.7692528
   5791,   33.4100952,   30.4040356
   5792,   30.3797359,   34.0083237
   5793,   33.6931725,  -9.68260384
   5794,   22.2299767,   -17.887249
   5795,   33.7477875,   15.2247696
   5796,   -7.5042429,  -22.7314644
   5797,   15.0528412,   33.4142838
   5798,   9.58860111,   33.9760132
   5799,   32.0920181,   33.7299919
   5800,   31.8796978,   9.84181404
   5801,   22.0318794,   -2.2127831
   5802,  -32.7189903,   6.42978716
   5803,    -25.09762,  -3.81906748
   5804,   32.1315193,   14.7890596
   5805,   23.5515423,  -15.3936577
   5806,   1.26965618,  -27.6017399
   5807,   31.7766781,    15.498764
   5808,  -30.5106716,  -8.05644417
   5809,  -31.7131939,  -24.4001007
   5810,  -3.93537903,  -22.5846729
   5811,    29.510498,  -7.00255203
   5812,  0.545130908,  -26.1481895
   5813,  -32.0986671,   8.47688961
   5814,  -24.5288811,  -24.2057419
   5815,  -6.95475531,  -24.0934296
   5816,  -25.3258038,  -24.2878132
   5817,   3.80340195,    20.803112
   5818, -0.529941678,   -24.255024
   5819,  -3.47699165,   33.7244568
   5820,  -1.19058895,   -30.729744
   5821,  -1.08062422,   27.6394062
   5822,  -30.9065189,  -11.4597187
   5823,  -17.9795914,   30.9185848
   5824,    29.555336,  -23.5504036
   5825,   28.1363068,  -26.6426182
   5826,   24.9897366,   20.4691353
   5827,  0.356502622,   24.0163097
   5828,  0.773899972,  -28.7148952
   5829,   22.3955212,   21.4370213
   5830,  -19.0470219,    27.301157
   5831,  -33.5820618,  -28.3025837
   5832,  -23.7002659,   34.3556557
   5833,  -34.6439552,   23.5885773
   5834,  -1.59508049,  -32.4160881
   5835,    34.002388,  -25.7625217
   5836,   34.7937164,  -23.3112278
   5837,  -30.4095631,   -23.320982
   5838,  -26.3693218,   34.7189407
   5839,  -34.7524452,   26.4679012
   5840,   33.4501953,   32.2615929
   5841,  -1.63801014,   34.5357704
   5842,   33.9176712,  -1.41577458
   5843,  -33.7895889,  -23.7000961
   5844,    33.984951,    23.620451
   5845,   1.13148856,     34.03022
   5846,   23.2747517,   34.5283241
   5847,  -34.4413719,  -26.4444542
   5848,  -32.2142906,   33.2748947
   5849,    34.047657,    26.429903
   5850,   26.1147099,    34.121151
   5851,   21.5369473,   23.2622585
   5852,   8.66679764,   23.8146896
   5853,  -32.1283569,   6.90199041
   5854,   -3.0080018,   28.4953842
   5855,  -1.13310301,  -33.2000351
   5856,   6.72145271,   23.4816093
   5857,   12.3218908,  -22.0410748
   5858,   3.93527317,  -25.1251431
   5859,   32.5630035,   13.0170012
   5860,   23.4870815,  -14.1639633
   5861,  -30.5982132,   17.1943188
   5862,  0.047045663,  -32.3909988
   5863,   4.59952641,   20.5657692
   5864,   24.3941174,  -12.3990822
   5865,    -21.99757,  -18.3675232
   5866,   32.3330307,   11.9918518
   5867,   14.7274895,   24.5708733
   5868,   -13.546422,   25.1603107
   5869,  -6.03165579,  -23.9875145
   5870,  -29.9714012,   13.4955196
   5871,   24.4854412,  -20.2286587
   5872,  -14.8539591,    26.105835
   5873,  -13.6650352,  -25.2153244
   5874,   24.0666409,   20.5663395
   5875,  -28.0350914,   18.9526615
   5876,  -26.7112503,  -15.0743732
   5877,   30.7590618,  -5.13723326
   5878,  -22.8416805,  -3.76199746
   5879,  -10.4147005,  -22.1113892
   5880,   26.1471653,    17.048727
   5881,  -11.8512478,  -20.9432049
   5882,  -5.23861027,  -23.8699913
   5883,  -29.0504627,   11.6026449
   5884,   -28.717804,   12.9060249
   5885,   25.7671757,   18.1470394
   5886,   19.6694794,   23.9568405
   5887,   25.5645809,   3.51322985
   5888,   16.0425911,   22.1663628
   5889,   4.78580523,  -26.7930088
   5890,   33.4376411,  -3.18097186
   5891,  -2.67901111,   29.7650719
   5892,   -18.815527,   25.4084511
   5893,  -21.8316441,  -25.6716347
   5894,   31.2218037,  -29.4494209
   5895,  -27.5991879,  -22.4193687
   5896,   27.8935452,  -8.62849331
   5897,  -30.3888512,   11.1787109
   5898,   30.4283524,   15.4768829
   5899,    32.727253,  -4.72553205
   5900,  -21.7534504,  -15.6328344
   5901,   8.69594002,   20.9152737
   5902,  -2.66331959,  -19.0500031
   5903,  -12.2044754,  -21.6329327
   5904,  -11.4469757,  -22.0501823
   5905,  -11.7584286,  -22.9582653
   5906, -0.494469434,  -25.8756237
   5907,   28.9159927,  -21.6779022
   5908,  -31.5776958,   17.4705372
   5909,   11.5626707,   26.1933498
   5910,  -23.4421272,   -15.021739
   5911,   9.42597675,   32.6483269
   5912,    14.713685,   32.4546127
   5913,   32.6362877,   15.9328623
   5914,   32.7887268,  -9.57284832
   5915,   4.74468803,   21.2475338
   5916,  -30.4106541,   19.0664158
   5917,  -32.8485184,  -16.1681232
   5918,   32.4006348,   -15.676755
   5919,  -32.3742523,  -9.06941986
   5920,  -32.3343582,   15.4652672
   5921,  -32.4004211,   9.04353142
   5922,  -8.23457146,   -22.399931
   5923,    28.531002,   17.2933044
   5924,   29.6870499,  -21.9263821
   5925,  -30.8524475,   -13.699625
   5926,   5.25748634,   23.3106041
   5927,   7.57166529,   32.7402992
   5928,   17.7539654,   33.0299225
   5929,    32.610939,   18.0476761
   5930,   32.6690369,  -7.20647907
   5931,  -32.8071098,  -17.8994617
   5932,   32.4843063,  -17.6620998
   5933,  -32.5713463,  -7.45604277
   5934,  -32.3536377,   17.1990509
   5935,  -17.3072567,   32.7742767
   5936,  -13.5441599,  -23.3618298
   5937,  -17.2460594,   31.8680477
   5938,   30.3705139,   33.3895912
   5939,   32.5581818,   30.5250168
   5940,   5.23349571,   32.4114723
   5941,  -33.0952339,   29.9262886
   5942,   -30.320385,   32.3386002
   5943,   32.3504944,   19.9735432
   5944,   13.1958494,   32.9644051
   5945,  -32.8816795,  -19.6099358
   5946,  -20.0594196,  -24.6221542
   5947,   32.2812958,  -13.6060095
   5948,  -32.2207718,  -11.9511099
   5949,   -32.545929,   13.5450573
   5950,   26.3433876,   -10.822114
   5951,   32.9445839,  -5.43651915
   5952,  -32.2515526,   19.0532742
   5953,  -19.0347786,   32.7278862
   5954,   23.6363831,  -16.6774731
   5955,  -11.6237974,  -20.3521137
   5956,   23.0529385,  -20.0769653
   5957,   1.46255207,    25.193821
   5958,   32.6484756,   31.9886513
   5959,   -33.132122,   31.9749184
   5960,  -32.0643654,   32.2556419
   5961,   32.9753952,   28.7576294
   5962,   21.9875145,   32.6961823
   5963, -0.691142023,  -25.1896954
   5964,   4.75268936,   21.9310055
   5965,  -3.26718187,  -25.1249847
   5966,   -28.930687,   32.4883537
   5967,   32.8684235,  -21.6226063
   5968,   -32.533886,   21.7120075
   5969,  -21.7723255,  -24.9113007
   5970,  -23.2496719,  -23.9450836
   5971,   -31.352026,   15.4443913
   5972,  -28.1843567,  -13.6573553
   5973,  -27.5270061,  -15.7580719
   5974,   25.2036724,  -19.6604786
   5975,  0.602673292,  -29.9620018
   5976,  -1.15647078,   31.4120159
   5977,  -32.4182167,  -5.72713947
   5978,  -30.5111027,  -7.53887224
   5979,  -16.3418694,   30.2362156
   5980,  0.786622763,   -25.014967
   5981,    9.0267458,   24.6987343
   5982,   24.0999928,  -14.7148237
   5983,   22.9977207,  -16.0128422
   5984,  -25.1096325,   19.9958611
   5985,   18.7396584,   24.0938301
   5986,  -19.5100727,   29.9043274
   5987,  -26.1176834,  -21.2083111
   5988,   29.6176853,  -25.4722881
   5989,  -22.5983086,   -15.322072
   5990,  -31.9693966,  -9.79473972
   5991,  -23.9972801,  -24.1144161
   5992,  -19.3837719,   29.0182133
   5993,  -19.5728035,   26.3762016
   5994,   -32.027504,   9.69223881
   5995,   23.6646385,   21.2471504
   5996,   30.7011337,  -28.3515778
   5997,  -33.1166382,   8.31499481
   5998,  -33.7981033,  -16.2221031
   5999,    33.742485,  -8.77871513
   6000,   28.9276943,  -24.3442669
   6001,   30.9152946,  -22.8327026
   6002,   33.6341133,    16.138422
   6003,  -32.5334549,  -12.7980661
   6004,   25.5472832,   19.2244492
   6005,  -22.8104687,  -18.0994644
   6006,  -21.4856243,  -19.3823204
   6007,  -29.9653473,  -22.2707005
   6008,   21.2955494,   23.9433765
   6009,  -1.87314928,   30.2159824
   6010,  -30.8122978,   17.8762722
   6011,  -24.4118881,   35.4788284
   6012,  -35.6053886,    23.553112
   6013,  -33.6728096,   23.6200733
   6014,   35.3635864,   -25.354332
   6015,   35.6605835,  -23.3960648
   6016,   33.9256821,  -23.9831581
   6017,  -26.3911419,   35.6425323
   6018,  -26.3644733,   33.7688942
   6019,  -5.34868145,  -23.0704842
   6020,  -35.6545448,   25.5070114
   6021,  -1.56248558,   35.5128365
   6022,   35.2045517,   24.3680744
   6023,  -35.1753235,  -24.3821945
   6024,  0.436456859,   35.3290405
   6025,   23.3878956,   35.5099983
   6026,  -35.4350739,   -26.425108
   6027,    35.325119,    26.388752
   6028,   25.4077835,   35.3484688
   6029,   26.6092091,   17.9090157
   6030,   10.8058329,   25.1285305
   6031,   -33.856163,   26.4431438
   6032,   33.3330956,  -26.3445854
   6033,    -34.33255,  -25.5098953
   6034,  -23.1135311,   34.0534248
   6035,   -30.704052,   11.9085102
   6036, -0.184471413,  -31.6643848
   6037,   31.4823856,  -28.7216034
   6038,  -28.4918957,  -21.8382568
   6039,   29.9274082,   17.1273518
   6040, -0.514071643,   22.7028255
   6041,   17.2929058,   22.5255604
   6042,  -29.7931271,   11.6725426
   6043,  -25.3986301,  -15.6066628
   6044,   7.81882143,   24.2520657
   6045,  -28.9180984,   19.5518703
   6046,   31.9191227,  -5.19646454
   6047,   23.7397575,  -19.4486809
   6048,    33.165081,    29.555872
   6049,   19.5524635,   33.5343208
   6050,  -29.7780743,   33.9157372
   6051,   33.5843315,  -19.6470852
   6052,  -33.5417747,   19.6002331
   6053,   33.5454941,   7.45522738
   6054,   17.7620773,   33.6961098
   6055,  -31.2577782,   33.2483788
   6056,  0.489305615,  -28.0007992
   6057,   33.4959183,  -17.6306381
   6058,  -33.4612694,  -7.43813086
   6059,  -33.7377167,   18.2259331
   6060,   33.2611122,   9.36896133
   6061,   5.69013262,   23.9874878
   6062,  -6.06482029,  -23.1039639
   6063,  -25.8001328,   20.4791164
   6064,   30.3097954,  -26.3740578
   6065,  -19.6270294,    30.810318
   6066,   25.1369324,  -13.5582638
   6067,  -21.2242222,  -21.9826374
   6068,  -30.0722198,   12.7913637
   6069,  -27.4624176,   19.8932552
   6070,   15.8058224,   24.9822159
   6071,   23.6870346,    -18.03722
   6072,  -1.98582304,   28.1468678
   6073,   15.9953547,    33.132637
   6074,   30.4924316,  -6.46017694
   6075,   33.4398766,  -15.6140585
   6076,   -33.308342,  -9.37144089
   6077,  -33.2199707,    16.400177
   6078,   13.6110373,   25.5257092
   6079,  -32.2267189,  -6.59133673
   6080,   29.8228359,  -28.0014553
   6081,   33.1378059,   13.5791883
   6082,   16.0578403,   24.2485199
   6083,  -32.4218521,  -24.9819851
   6084,  -13.0216436,  -23.8806953
   6085,  -20.0673504,  -26.0064373
   6086,  -10.9134569,  -22.3814278
   6087,  -11.9955635,   -25.628315
   6088,   28.7749596,   -9.7729311
   6089,   32.2800751,   16.9451637
   6090,  -25.6003532,  -4.37487459
   6091,  -32.5511322,   -23.376852
   6092,  -24.0761471,  -14.8080339
   6093,   26.0303268,  -22.1806469
   6094,  -2.78083158,   32.7440605
   6095,   32.3487816,  -28.1317806
   6096,   -32.349556,   7.70450735
   6097,   33.7880669,  -5.21140671
   6098,  -33.7601891,  -19.7246399
   6099,   30.1100693,  -8.39671135
   6100,  -20.0075245,   33.6698761
   6101,   33.8311844,   19.7710171
   6102,   4.75080824,   33.2778549
   6103,   29.5495644,   33.8861542
   6104,   11.4088097,   32.9008255
   6105,   32.3130646,   -11.490221
   6106,  -32.7653351,  -13.6476021
   6107,  -32.6467361,   11.6293249
   6108,   3.32993126,   32.9134331
   6109,   32.1793671,   21.1207409
   6110,  -33.0365639,  -21.7862415
   6111,  -32.8425026,   28.1320686
   6112,  -22.2249966,   32.5746384
   6113,  -33.7725182,   -17.982914
   6114,   7.08470583,   33.3861542
   6115,   33.6387138,   18.0032463
   6116,   33.8127136,  -6.85790491
   6117, -0.881033659,   33.4334984
   6118,  -32.8023033,  -24.0552616
   6119,   33.3216324,   24.4675312
   6120,  0.844032943,   33.0673294
   6121,   24.0433712,   33.4317589
   6122,   32.9013596,   25.9452057
   6123,   25.8954678,   33.1688995
   6124,   8.90859699,   34.3560829
   6125,   32.2882881,   32.5732727
   6126,   30.2301998,  -27.6008835
   6127,   24.2423935,  -15.9895315
   6128,  -31.7209644,   31.3632698
   6129,  -20.0569134,   28.0298977
   6130,    30.138998,  -23.8792706
   6131,  -32.7235641,    10.730401
   6132,  -24.6196499,   33.6005135
   6133,  -33.7448463,   24.5748463
   6134,    33.191143,  -25.2431698
   6135,   33.6343575,  -24.6378555
   6136,   30.0733929,  -7.29816723
   6137,  -31.6205902,   13.5527344
   6138,  -25.4828186,   33.6929016
   6139,  -33.8120728,   25.5143814
   6140,  -23.8057404,   32.6067963
   6141,  -32.6850929,   23.6612186
   6142,   32.5831871,  -25.8486938
   6143,   32.9582062,  -24.1935787
   6144,  -26.3730278,   32.7872887
   6145,  -32.9021416,   25.5387611
   6146,  -29.6671944,   19.6760941
   6147,  -32.2531815,   16.3767757
   6148,    26.112402,  -12.4169006
   6149,   12.5458469,   26.4214554
   6150,  -32.4561539,    14.511467
   6151,   32.3488388,  -14.6571827
   6152,  -32.0175591,  -15.3022566
   6153,   32.4838486,  -10.4644356
   6154,   13.8400602,   32.6502724
   6155,   10.3325319,   32.4637871
   6156,  0.912573338,   24.6248894
   6157,   1.46737659,   26.7582207
   6158,   25.8564568,  -19.1132622
   6159,  -32.5800285,  -8.27909184
   6160,   32.4378738,   -16.673315
   6161,   -32.786026,  -17.0208397
   6162,   32.6237488,  -8.41630459
   6163,  -22.2475243,  -23.6893425
   6164,   -19.963171,  -21.4842834
   6165,   17.0056534,   32.6920128
   6166,   8.58949566,   32.2849655
   6167,  -28.2824574,  -16.2677307
   6168,  -18.9198399,   31.7825642
   6169,  -31.9082603,   18.2793388
   6170,   33.0150146,  -6.14068604
   6171,   32.5296211,  -18.6824532
   6172,  -31.9433784,  -18.7801208
   6173,  -19.8221092,   27.1687527
   6174,  -20.9790802,  -20.2743015
   6175,  -22.2396545,  -19.2280521
   6176,   32.8634491,   18.9646835
   6177,   -30.558609,  -6.68816328
   6178,   18.4330635,   32.6935844
   6179,  -32.3828049,   31.0699177
   6180,  -31.1554871,   32.3291359
   6181,    6.2268362,   32.0369186
   6182,  -25.3667278,  -21.1993084
   6183,   32.0322075,   30.7614498
   6184,   31.7226505,     31.99967
   6185,   27.0840454,  -11.1492023
   6186,   -1.0634861,   32.4205284
   6187,   -31.571579,  -8.70274734
   6188,   30.5337887,  -23.6414928
   6189,   17.8263626,   24.3079853
   6190,   1.16543126,   23.4055061
   6191,  -30.9295483,  -21.9514713
   6192,  -31.8684044,  -11.1043854
   6193,   22.3427963,   23.6846218
   6194,   24.4644279,  -18.8105888
   6195,  -1.58160639,    29.288229
   6196,  -26.2699318,  -15.9483681
   6197,  -27.1484966,  -21.6793766
   6198,    -26.46311,   22.3342209
   6199,  -24.5393543,   34.5430794
   6200,  -34.6911888,   24.5473785
   6201,   34.4347992,   -25.016407
   6202,   34.6953621,  -24.1794071
   6203,   -25.451664,   34.6481628
   6204,  -34.7313957,   25.5039997
   6205, -0.712345362,   34.4366608
   6206,   34.2196312,   24.4812069
   6207,  -34.1315079,  -24.5731602
   6208,  0.225535899,   34.2823143
   6209,   24.2299805,   34.4314117
   6210,  -19.7449951,   31.7466965
   6211,  -27.8884697,   21.0364494
   6212,   6.93199921,   24.4549503
   6213,   25.9065094,   21.2731953
   6214,   26.0803223,   19.9510365
   6215,  -12.1005507,  -24.1192474
   6216,   16.8402004,   23.5792637
   6217,  -23.9756279,  -15.9356174
   6218,    20.581049,   23.9653721
   6219,  -32.3831291,   -22.325964
   6220,  -21.4650707,   32.6147766
   6221,  -32.5389099,   20.7604599
   6222,   32.6535492,  -20.6843529
   6223,   -30.365097,  -14.4640484
   6224,  -29.5374374,    32.370739
   6225,  -32.6907578,   29.1322861
   6226,  -32.4550972,  -21.1844139
   6227,   31.6502609,    20.291647
   6228,   20.6816502,   32.6073265
   6229,   4.19576168,    32.242733
   6230,   32.0483856,     29.71422
   6231,   28.6705399,   32.8903313
   6232,    9.4949398,   25.7516823
   6233,   28.3938389,  -10.9853477
   6234,   -25.175457,   22.2668018
   6235,   28.3200016,  -20.6397247
   6236,  -32.6105461,    12.583046
   6237,   29.5267963,  -8.84766102
   6238,   32.2185936,  -12.5596886
   6239,   24.5269012,    21.755394
   6240,   30.8185539,  -21.6337719
   6241,   12.4032917,   32.5353241
   6242,  -24.6030235,  -15.2311363
   6243,   1.67977405,   32.7225075
   6244,   23.8510838,   32.4450989
   6245,   34.2058792,   25.3989868
   6246,   32.1697884,   26.6795521
   6247,    26.657856,   32.1505127
   6248,   25.1938267,   34.3122444
   6249,  -12.6755238,  -20.4893284
   6250,   28.0769024,  -21.3784847
   6251,  -12.9803238,  -22.9002895
   6252,   14.5196915,   26.7355099
   6253,  -1.25535893,  -25.3337593
   6254,   32.1604042,  -27.4481449
   6255,  -18.0876045,   31.8332825
   6256,  -23.0055523,   32.5597801
   6257,  -32.5929298,   22.6857433
   6258,   33.0714951,  -22.4904079
   6259,  -27.2590542,   32.8571205
   6260,  -32.3250999,   27.1690865
   6261,   32.4237366,    22.374649
   6262,   2.47981143,    32.346302
   6263,   22.8862915,   32.5304031
   6264,   32.0713882,   27.7423706
   6265,   27.7231369,   32.9319115
   6266,   -1.3157661,   28.4413433
   6267,  -30.8817158,   19.7956181
   6268,  -30.4651432,  -20.8757305
   6269,  -21.7907581,    -21.31036
   6270,   4.41842222,   23.6550922
   6271,  -19.4363213,    25.726862
   6272,   -29.233614,  -14.9852028
   6273,  -31.5057163,  -7.14581203
   6274,    26.581646,  -19.8220367
   6275,  -21.4460449,  -24.2356148
   6276,  -23.7014732,  -18.2959042
   6277,   31.2790222,   17.4750843
   6278,   24.3714294,   -17.365509
   6279,  -20.7888069,  -23.7732372
   6280,   3.20777822,   23.2241726
   6281,   31.1725521,  -25.8637886
   6282,   -20.447134,   30.7750702
   6283,  -30.8111992,   12.7128305
   6284,   10.5922117,   26.0431175
   6285,   19.8345089,   24.8456097
   6286,   25.6288242,  -12.9871931
   6287,   4.80366755,   24.3699265
   6288,   27.8004856,   16.4513493
   6289,   15.6238785,   25.8482456
   6290,   27.5341244,   17.6758327
   6291,   30.4517021,   17.8540192
   6292,   -24.025589,   21.0368576
   6293,  -20.9269829,   27.8459549
   6294,   30.8851624,  -24.1547985
   6295,  -22.4661789,  -20.1129913
   6296, -0.844214499,   29.5232048
   6297,  -23.2573204,  -19.9336929
   6298,  0.219318911,   28.0011024
   6299,   24.0904503,   22.5253048
   6300,   27.8247166,  -11.6132641
   6301,  -24.2450409,  -23.5758743
   6302,   24.8060989,  -15.2520819
   6303,   1.92691612,   25.7808666
   6304,  -22.2858658,  -22.2027645
   6305,   31.3366661,  -15.7732086
   6306,   -31.935606,  -16.0873928
   6307,   31.4766102,  -17.7028217
   6308,   31.9974995,  -9.15676975
   6309,  -31.8792324,  -17.9113579
   6310,    31.324379,  -7.12776852
   6311,   31.5524235,  -19.7289391
   6312,  -0.28160125,    31.439949
   6313,   15.3556881,   31.4073296
   6314,  -32.0188789,  -19.6295643
   6315,    9.5852747,   31.7930241
   6316,   17.8502388,   31.9795551
   6317,   7.07652378,   31.8691521
   6318,   31.2448044,   19.4357491
   6319,   19.5288429,   32.2477989
   6320,  -31.9540234,   30.4820671
   6321,   5.17788458,   31.2002373
   6322,  -24.5492096,   21.7043476
   6323,   30.3217525,    31.786459
   6324,   31.6969299,   18.3068295
   6325,   28.5774708,  -19.9167061
   6326,  -31.1342602,  -15.2865648
   6327,  -22.1404858,    31.668787
   6328,   -31.766964,  -21.5547943
   6329,  -32.5430145,   19.8770905
   6330,   32.5744095,   -19.698082
   6331,  -31.6275501,   11.6778488
   6332,  -31.8289413,   27.6950245
   6333,   31.3505898,   21.6403809
   6334,   31.1706505,  -13.7391949
   6335,   3.31854367,    32.171505
   6336,   32.2094879,   25.5002899
   6337,   28.5317955,   31.9621696
   6338,   13.3024302,   31.6026917
   6339,   25.7311478,  -17.1339417
   6340,  -20.2501678,    26.136837
   6341,   13.5405846,    26.654995
   6342,   25.7286472,   32.2614365
   6343,    27.782196,  -19.6150131
   6344,  -31.4471207,   21.7348194
   6345,  -30.2646751,  -19.8041897
   6346,   32.0320435,  -21.8155231
   6347,  -21.1766872,   29.8076611
   6348,  -30.1380768,  -15.3859148
   6349,  -28.3210697,   31.9149132
   6350,   31.3238525,  -24.7103119
   6351,   21.4155312,   31.6426163
   6352,   32.0397415,   28.7181625
   6353,  -23.9288082,  -16.8721313
   6354,   26.0288162,  -14.1691809
   6355,   3.60852814,   23.9932995
   6356,   28.8615189,   18.3405552
   6357,   5.15842676,   25.0675392
   6358,   26.1408119,  -13.3710918
   6359,  -27.2180595,   21.7420788
   6360,   30.6868515,  -9.12544155
   6361,   11.4050655,   27.0664291
   6362,  -23.9630928,  -22.7877674
   6363,  -24.4625816,  -18.4903412
   6364,   31.3782864,  -27.7430458
   6365,   31.4995956,   30.4819965
   6366,  -30.1285419,    31.523201
   6367,   29.6703033,   18.1555157
   6368,   25.6314869,  -15.7276859
   6369,   16.6491718,   26.0546646
   6370,   11.0528851,   32.1142426
   6371,  -28.9467335,   21.8166809
   6372,    31.173933,  -11.3691444
   6373,  -30.2907715,   20.1115913
   6374,  -25.7486019,   22.8305836
   6375,   1.64565766,   24.0816154
   6376,   -25.914856,  -16.6906872
   6377,  -25.9819756,  -20.6403847
   6378,   30.0302982,  -21.2123566
   6379,   21.7954445,   24.6318512
   6380,   17.9865723,   25.3565197
   6381,  0.417293429,   27.1985931
   6382,  -24.6137562,   31.7424393
   6383,   31.8976498,  -24.1742115
   6384,  -25.4821911,   31.7694836
   6385,  -31.9962139,    25.613266
   6386,   -32.152092,   26.4727669
   6387,   -26.373827,   31.7954311
   6388,  -20.6835747,   32.6613312
   6389,   -31.685463,   23.7305412
   6390,  -23.7740841,   31.7016335
   6391,  -32.9119911,  -20.3533096
   6392,   27.0817337,   19.6877556
   6393,   7.18565941,   25.2969875
   6394,  -28.6481724,  -17.3668327
   6395,   15.5090132,   26.8080196
   6396,   26.1233654,  -18.0964203
   6397, -0.00740687829,   33.2858315
   6398,   19.9077187,   25.6698627
   6399,   -32.026226,  -14.5739908
   6400,   23.1833038,   24.1261139
   6401,  -30.7632408,   13.5524759
   6402,   25.4036407,   22.1831779
   6403,   27.6828766,   22.1018124
   6404,   8.37075424,   25.9892673
   6405,  0.478347749,   31.4262371
   6406,   26.2247639,   22.7008381
   6407,  -21.3482723,   26.5812378
   6408,   2.55428624,   25.4322453
   6409,  -26.4552174,  -20.3540707
   6410,   32.2688637,    24.880661
   6411,   24.7984791,    32.363163
   6412,   31.5303936,   25.7439919
   6413,   25.5890427,   31.3891296
   6414,   29.9615192,  -9.47267151
   6415,  -28.2586651,  -20.4955502
   6416,   21.8179321,   25.7536812
   6417,   2.41145706,   23.6248226
   6418,  -24.2938747,  -18.9682503
   6419, -0.444745511,   27.8174229
   6420, -0.638146222,   28.6591434
   6421,  -21.9381466,   28.7854118
   6422,  -21.6933556,  -20.2576122
   6423,   26.2654514,  -16.4393349
   6424,    26.032917,  -14.7552967
   6425,    29.434103,  -20.1776981
   6426,  -24.6397839,  -17.8338394
   6427,   -21.260231,   30.7523575
   6428,  -23.4681969,  -22.3274879
   6429,   5.47328186,    25.740406
   6430,  -27.8974228,   22.5270557
   6431,  -31.1119747,   25.7647247
   6432,  -24.5775452,   30.8040295
   6433,   29.4112377,   17.5196609
   6434,  -26.4172516,  -17.7507267
   6435,   1.40067625,    31.917778
   6436,   31.9748573,   23.0511703
   6437,   17.6299667,   26.3061104
   6438,  0.609351218,    32.208992
   6439,  -30.6798782,   23.8559475
   6440,  -26.3286705,   30.8036995
   6441,  -29.2971916,   20.6489658
   6442,   32.4024887,  -23.5049896
   6443,   27.9879093,   18.7591953
   6444,    23.635664,   23.3168011
   6445,  -29.4577236,  -17.7643204
   6446,   27.3185749,   -18.022171
   6447,   24.0095234,   24.5909081
   6448,   18.8409328,   26.0284939
   6449,  -28.3165531,  -18.0252171
   6450,   30.6660709,   30.2340698
   6451,   28.0049686,   20.6231422
   6452,  -23.3171463,   21.4189205
   6453,  -30.6750164,   29.9975185
   6454,   23.7025299,   31.4893436
   6455,   13.5731001,   30.4564037
   6456,   7.37840986,    26.157465
   6457,   11.2993689,   27.7461376
   6458,  -26.1502953,   23.5315895
   6459,   30.1585884,  -14.0370922
   6460,   27.3427296,   21.5430298
   6461,   20.8476124,   25.8002129
   6462,   30.2708282,  -15.8519478
   6463,   9.47374439,   26.9481316
   6464,   17.8888283,   30.6744823
   6465,   30.5382099,  -17.8162308
   6466,   19.2786236,   30.6286011
   6467,  -31.1602287,  -19.7226887
   6468,   31.0481224,   28.6097832
   6469,   30.5588913,  -19.6049213
   6470,    21.617979,   30.3822975
   6471,  -28.1719818,   30.7307377
   6472,  -21.9274025,   27.5797596
   6473,   -30.288372,   21.8102131
   6474,  -24.1011658,  -22.0040035
   6475,  -23.5581055,  -20.7091713
   6476,  -1.04183137,    30.436964
   6477,   13.4149408,    27.969862
   6478,   30.0776711,   18.8744297
   6479,    31.890789,  -25.2946072
   6480,   28.3390961,   31.0633965
   6481,   3.24030828,   31.2282543
   6482,   30.1024132,   21.5301914
   6483,  -30.7610149,    28.329464
   6484,  -22.0687141,     30.74547
   6485,  -30.6500397,  -16.3365593
   6486,   28.0914059,  -18.9194851
   6487,    26.586216,  -13.7929459
   6488,    2.8385334,   24.3542366
   6489,  -31.2581272,   29.5876331
   6490,   30.3979282,   31.0199738
   6491,   5.14297819,    30.171648
   6492,   30.4823818,   19.6888752
   6493,  -23.7732296,   22.3632736
   6494,   7.14052057,   31.0173893
   6495,  -31.0656815,  -18.0104809
   6496,   9.20842743,   30.7957249
   6497,   10.9850798,   30.9154301
   6498,   30.1637192,  -11.2576857
   6499,   29.0723648,  -11.6369009
   6500,   15.5034542,   27.7830696
   6501,  0.911002636,   28.1997242
   6502,    31.913763,  -26.5841885
   6503,   29.6748867,   19.8682442
   6504,   18.5181465,   26.7035675
   6505,  -24.5312996,   29.8741665
   6506,   6.48309517,   26.2872238
   6507,  0.554053903,   30.6435261
   6508,   29.8113728,    29.999815
   6509,  -30.0234985,   29.7720165
   6510,   23.6542492,   30.5557041
   6511,   30.7518387,   23.3334389
   6512,   27.0543041,  -15.4286461
   6513,   25.7551861,   23.4261227
   6514,  -27.2455177,  -20.0395966
   6515,   -25.252037,  -20.3168144
   6516,   22.5333328,   25.6137772
   6517,   26.9959869,  -16.8458633
   6518,  -25.6402512,  -17.3971004
   6519,   4.73614311,   26.0731316
   6520,   28.2957726,  -18.1854687
   6521,  -27.4099636,   23.9207401
   6522,  -30.4537296,   22.8430405
   6523,   24.5061951,   23.8149986
   6524,  -27.2466011,   30.7839966
   6525,   23.5488434,   25.3738537
   6526,    19.718111,   26.4062386
   6527,   30.3794346,  -20.4514351
   6528,   25.4687901,   30.5709114
   6529,    30.602766,   25.9901447
   6530,  -23.8448448,  -21.4075813
   6531,  -30.1880569,  -18.8024807
   6532,    -22.82934,   29.8241692
   6533,   2.43796778,   28.2266254
   6534,   29.8478622,  -12.0490255
   6535,  -24.2287483,    23.945013
   6536,   9.46505928,    28.007206
   6537,   3.24987912,   25.0827885
   6538,    28.298748,   22.8453922
   6539, -0.0905882716,   29.6886253
   6540,   27.2702312,  -13.2965641
   6541,   11.9327536,   28.1599274
   6542,   14.8049364,   28.9275074
   6543,   30.2904053,  -14.9168577
   6544,   30.1370697,  -16.9041367
   6545,   30.6318111,  -18.7233829
   6546,   14.5010824,   29.9399147
   6547,   9.61737156,   30.3663254
   6548,   17.2430038,   29.9941769
   6549,   8.44491577,   30.1454182
   6550,     18.52244,   30.0618286
   6551,    6.1655755,   30.0551224
   6552,   30.0546379,  -10.3402042
   6553,   12.2925291,    30.859005
   6554,    -29.09198,   30.6301613
   6555,  -30.4075089,   29.0576229
   6556,   29.9296608,    20.693224
   6557,  -31.0402679,  -17.3653507
   6558,   20.6114864,   30.1155434
   6559,   4.17825651,   30.2370014
   6560,    30.066843,   29.2753811
   6561,   29.3571472,   30.8429375
   6562,  -30.4370956,   26.9903984
   6563,   30.0717449,    22.285635
   6564,    2.3579452,   30.1726532
   6565,   22.6623726,   30.4930973
   6566,   10.5684624,   28.0896626
   6567,   30.0283451,   27.7800255
   6568,   27.2227879,   30.2894611
   6569,  -24.7197571,  -19.4944324
   6570,   16.3800964,   27.7600174
   6571,   29.6458378,  -19.4202766
   6572,  0.807911992,   28.9995213
   6573,   28.8017998,   19.9133492
   6574,   -22.613678,   26.6910133
   6575,  -26.1512108,  -18.3706017
   6576,   27.2742863,  -12.2430067
   6577,   24.6580143,   31.4574757
   6578,  -24.7810917,  -21.9291954
   6579,  -28.3715649,   23.4495621
   6580,  -22.8782997,   27.9537544
   6581,  -23.6795616,   29.8581791
   6582,  -30.2342892,    25.944437
   6583,  -28.5586128,  -19.0065708
   6584,   -25.284605,   23.8476334
   6585,   2.23275352,    26.442915
   6586,   23.2170048,   22.0027199
   6587,  -24.4900322,   28.9653358
   6588,  -23.2750416,   25.9963512
   6589,  -29.4628124,   26.8840714
   6590,  -25.8797054,  -19.7663383
   6591,   28.3276062,   22.1245193
   6592,    28.300148,   23.6749611
   6593,    3.3704958,   27.6399574
   6594,   29.0028725,  -13.6903505
   6595,   4.36615849,   25.4362297
   6596,  -29.9846039,   25.0078259
   6597,  -25.3828316,   29.8623466
   6598,   29.3296795,  -10.0144377
   6599,   7.45678711,   27.0688171
   6600,  -26.4733257,  -19.3635979
   6601,  -22.1284752,   21.0983181
   6602,   26.4262295,   23.7220058
   6603,  -23.6512642,   28.9588375
   6604,  -26.4970284,   24.3442421
   6605,   5.72112322,   27.0805092
   6606,   24.3105068,   25.8288403
   6607,   27.7742367,  -13.8162441
   6608,   29.8161182,  -13.2672615
   6609,   30.1937695,   25.1110401
   6610,   25.3743954,   29.8419857
   6611,    29.286787,  -15.8084822
   6612,   29.9025269,  -18.0473289
   6613,   15.6761723,   28.7276134
   6614,   17.9850903,     29.42379
   6615,   19.7114067,   29.7875137
   6616,   15.9985952,   29.6027451
   6617,   9.46526337,   29.8061275
   6618,   5.04784346,   29.2680969
   6619,    7.2529726,   30.0459976
   6620,  -28.0377007,    29.654768
   6621,  -30.0330524,   27.8943462
   6622,   29.0892143,   21.4418449
   6623,   11.3537378,   30.0820656
   6624,   3.24570823,   30.2392292
   6625,   1.34775352,   30.8219242
   6626,   21.8082409,   29.2579346
   6627,   11.4260702,   28.7554035
   6628,   28.0814056,   30.1675243
   6629,   17.1955338,   27.8665085
   6630,   30.0953712,   28.5471458
   6631,   26.3479252,   30.4611664
   6632,  -22.0433064,   25.9991665
   6633,  -23.6655998,   28.1440983
   6634,   25.4426479,    24.369688
   6635,  -27.6137295,  -19.3126297
   6636,  -28.7480526,   24.3768826
   6637,   3.26429152,   29.2937336
   6638,  -30.2626629,  -17.9496727
   6639,   28.1912289,   21.4107609
   6640,  -29.6991806,   24.0632133
   6641,  -27.7941456,     24.80023
   6642,   8.43330479,    28.026001
   6643,   27.7775364,  -17.1690197
   6644,   29.8889771,   26.9921093
   6645,   23.7296772,   29.6262035
   6646,   13.1159344,   29.3755875
   6647,   29.9537849,   22.9702625
   6648,   27.1028709,  -14.6882191
   6649,   20.0530682,   27.3638496
   6650,   17.3876801,   27.1332111
   6651,   13.8965149,   29.3239441
   6652,   10.3416004,   29.0541096
   6653,   29.2703629,  -14.3100634
   6654,   23.0496864,   26.1462421
   6655,  -23.9548855,   25.4083843
   6656,   27.8200092,  -15.0453281
   6657,   2.93405414,   26.1398678
   6658,    23.919651,   26.6420307
   6659,   27.2297001,   24.2151775
   6660,   25.2456646,   25.4859695
   6661,   28.1643047,  -16.4252872
   6662,   5.66802216,    27.773819
   6663,   7.41739893,   28.0361481
   6664,   25.8438587,   25.2639713
   6665,   -20.996088,   20.0161533
   6666,  -25.8394337,   25.4251289
   6667,  -21.4311275,   21.6463699
   6668,  -28.4741402,  -19.6934948
   6669,  -26.2462597,   29.8278332
   6670,  -23.4129734,   24.6794262
   6671,   3.30768943,   28.4294949
   6672,   23.9682064,   28.7270947
   6673,  -28.8020439,   26.8761826
   6674,   30.3417587,    23.958271
   6675,   19.0944748,   27.8445854
   6676,   20.0137901,   28.0562782
   6677,  -22.1361504,   24.6834564
   6678,   22.1989136,   26.9099369
   6679,   17.0372906,   28.4267159
   6680,  -25.5722675,   24.6279888
   6681,  -23.7185955,   27.5338116
   6682,   5.55225468,   28.3872757
   6683,   7.30831385,   29.0418015
   6684,   28.1787663,   27.9779778
   6685,   21.9889526,   28.1323891
   6686,   28.0397987,   29.0165005
   6687,   28.8997784,   24.5675793
   6688,  -27.2760639,  -20.7433949
   6689,  -28.5620899,   28.4573326
   6690,  -28.2037983,    25.595005
   6691,  -27.7988949,   28.6685085
   6692,   9.41158581,   28.9817352
   6693,   -29.367939,  -19.8299961
   6694,   26.4487572,   24.3542233
   6695,   28.6466122,  -17.4034557
   6696,   4.09076214,   27.6253719
   6697,   19.8760452,   28.9118118
   6698,   26.1420994,   29.6927052
   6699,   29.6569271,   26.1864166
   6700,   18.2475243,   27.4781761
   6701,   28.4165077,  -15.7298584
   6702,   12.6292973,   28.7211227
   6703,  -24.4378815,   28.0981789
   6704,   24.5841045,   29.7889442
   6705,  -25.2104492,   27.9774723
   6706,  -24.4403687,   26.1480789
   6707,   26.1755257,   26.8035316
   6708,   27.4991798,   27.8488216
   6709,  -22.6168785,   21.7619476
   6710,   6.47334528,   27.9579792
   6711,  -27.4680405,   26.0902328
   6712,   27.9260063,   24.2162399
   6713,  -27.6065025,   27.7746563
   6714,  -22.7633228,   24.0426331
   6715,   23.0312347,   28.4124889
   6716,   20.9437752,   28.0539436
   6717,  -24.2672806,    27.287611
   6718,   29.4267616,  -17.6938381
   6719,   24.4029026,   27.9043217
   6720,   4.88383007,   28.4791374
   6721,   25.7719135,   28.9777775
   6722,   28.5088024,   25.5720482
   6723,   17.9501419,   28.2243595
   6724,   25.1735916,   28.4167576
   6725,   27.6764069,  -15.6161919
   6726,   28.5001984,  -14.4786291
   6727,  -28.4144573,   27.4914627
   6728,  -20.7896805,   22.2012196
   6729,   -26.139183,   28.8677845
   6730,   4.86032248,   27.6991291
   6731,  -23.8116932,   26.6193676
   6732,  -22.5999146,   22.8584404
   6733,   17.4567471,   28.8552513
   6734,  -21.4406986,    22.830019
   6735,  -21.5425854,   24.0388699
   6736,  -26.5046005,    26.149847
   6737,   26.8575821,   25.8853893
   6738,   27.0944786,   28.2582321
   6739,   28.7588768,   26.3374901
   6740,  -26.9760742,    28.793293
   6741,   26.4219551,    28.636694
   6742,   28.0853443,   27.1874332
   6743,  -26.0372238,    27.912693
   6744,  -25.0609303,   25.6943493
   6745,  -19.8594742,   23.5085239
   6746,   28.2146358,   24.8345299
   6747,   26.5355644,   27.5356693
   6748,   27.6837597,   25.7314129
   6749,  -23.3468609,   23.3346157
   6750,  -20.4550705,   23.9956646
   6751,  -21.5135288,   25.2775211
   6752,  -25.9670105,   26.9979591
   6753,  -20.8871861,   25.7724895
   6754,  -19.1485729,   24.1391811
   6755,  -19.9968357,   24.4955254
   6756,  -18.1649475,    22.817749
   6757,   -19.888895,   25.4366817
   6758,  -36.4941177,  -36.4847603
   6759,    11.787858,   22.0509186
   6760,   20.3287716,   8.70096016
   6761,  -28.5347137,  -35.6559525
   6762,  -18.3814392,   35.5994759
   6763,   35.6154518,   16.3279972
   6764,   8.72261333,   35.7658463
   6765,   35.6110611,  -8.64860439
   6766,   31.4441986,   35.6445389
   6767,   35.3525887,  -31.8636799
   6768,    9.3368721,  -6.51081944
   6769,    2.4227469,   -8.4362669
   6770,  -1.15040028,  -8.59558201
   6771,   7.45098925,   21.5454044
   6772,   21.6489735,   14.9614573
   6773,   21.3857841,   15.6623316
   6774,  -4.03131771,  -8.17043495
   6775,  -35.6639099,   26.4817257
   6776,   30.4307308,   34.8088684
   6777,   -35.663311,  -16.3343658
   6778,  -35.6655121,   6.87752771
   6779,   8.01768494,   34.8410606
   6780,   3.46406674,    34.664711
   6781,   19.1394215,  -33.9297562
   6782,   34.5603561,   20.8164597
   6783,    34.640995,   16.2473545
   6784,   34.1212234,   4.89787626
   6785,   34.5754509,    -4.158288
   6786,   34.6543159,  -8.70607281
   6787,   14.3865423,     23.75424
   6788,    18.733036,   5.51173878
   6789,   15.3668919,   5.89863539
   6790,   34.5888786,  -33.0073662
   6791,  -8.47102356,  -34.0649796
   6792,   33.9249306,  -30.4361763
   6793,  -19.2391605,   34.6512337
   6794,    10.593401,   3.77539086
   6795,    10.063633,  -34.0988846
   6796,   23.6467152,   10.2083855
   6797,    5.3346734,    17.817461
   6798,   6.15154123,   19.3785534
   6799,   7.33243656,   14.8109255
   6800,   5.29276419,   16.6116905
   6801,   6.29995251,   16.5616856
   6802,    5.7551856,   16.0640392
   6803,   10.9752312,  -5.46254539
   6804,  -6.31139421,  -8.46246624
   6805,  -9.37091064,   4.63918304
   6806,   13.2692709,    8.0754509
   6807,   19.8263035,   6.64013004
   6808,   10.7870817,   -3.6545248
   6809,   9.47552776,  -7.36672449
   6810,  -6.36853123,  -34.5112991
   6811,  -9.82967186,   3.34203243
   6812,   20.4903736,   5.88119936
   6813,  -4.84262705,  -34.9239044
   6814,   30.7103062,    -33.94347
   6815,   19.9808483,  -33.7997513
   6816,   11.5172243,   -5.2045927
   6817,    1.9607265,   8.74624538
   6818,   26.0050793,     14.11063
   6819,  -12.2059813,  -34.7155418
   6820,  -13.9151125,  -34.7711906
   6821,  -21.1696415,  -34.7303047
   6822,  -28.3979473,   -34.788414
   6823,  -28.9560795,   33.9490433
   6824,  -23.8149433,   33.4739189
   6825,  -10.1537657,   33.1265945
   6826,   33.9762764,  -23.2343864
   6827,   32.9639053,   4.98728514
   6828,   32.9590111,   21.7817116
   6829,   33.4376793,   2.50341153
   6830,   33.7541771,   1.81594348
   6831,  -34.5220985,  -20.7985229
   6832,  -34.7383003,  -16.2755795
   6833,  -34.1118431,  -4.75910425
   6834,   33.8024521,   28.1243229
   6835,   33.8836212,     27.55196
   6836,   33.3758278,   23.8921795
   6837,   32.7824936,   23.5157814
   6838,   6.27849436,    7.2449851
   6839,  -7.89071703,  -33.3497276
   6840,   26.7975082,   33.0262489
   6841,  -34.7742958,   7.12124634
   6842,  -34.8500214,   8.88206768
   6843,   15.3457661,   23.8359318
   6844,     10.20963,  -7.48960781
   6845,   7.57034588,   23.6305771
   6846,   10.9902868,  -33.3065643
   6847,   18.2121983,  -34.2495003
   6848,   25.7014885,    16.169384
   6849,   12.2613621,  -1.57613087
   6850,   32.8427353,  -2.99809718
   6851,   -11.017312,   33.3523865
   6852,   9.85639763,  -7.84758472
   6853,   32.7970657,  -26.7743301
   6854,   8.37227821,   34.0798759
   6855,  -10.3839302,   3.59109354
   6856,   10.5912819,   33.9569931
   6857,  -2.61693668,   33.6674004
   6858,   22.2229195,   33.6634407
   6859,   5.62695265,  -33.8723831
   6860,    5.5433507,   12.9237318
   6861,   33.7709923,  -32.5498047
   6862,   33.6755447,  -33.1356163
   6863,   33.0115547,    27.921936
   6864,   20.3881378,  -33.0848274
   6865,   2.35164905,   34.3698196
   6866,  -30.4409771,    33.133831
   6867,  -28.8819637,   33.1353226
   6868,  -28.1066532,   32.9761505
   6869,   28.3125839,  -32.8756371
   6870,   16.2454109,   23.7033978
   6871,   32.3123474,  -32.2631149
   6872,   32.1298981,  -31.8393879
   6873,  -24.6390362,   32.6669731
   6874,  -33.1670609,  -24.7872391
   6875,  -22.3568459,   33.4588356
   6876,  -5.65830135,  -9.11271954
   6877,  -4.64113712,  -9.17050552
   6878,   18.4179268,    3.9414854
   6879,   19.1119709,   3.55771446
   6880,   9.62763977,    7.1178174
   6881,  -33.0922661,  -4.09238529
   6882,  -33.6837082,  -2.73934722
   6883,  -10.8094816,   4.59403324
   6884,  -33.7144699,   1.47562146
   6885,   7.07450485,   32.4809303
   6886,   32.4629898,   24.1922836
   6887,   33.1123734,    1.4331553
   6888,   31.9796982,  -30.7005615
   6889,   32.7262306,   31.2772732
   6890,  -8.93896961,   31.4424801
   6891,  -33.7585983,   6.63540602
   6892,  -33.9878387,   8.16163921
   6893,  -9.59167767,  -32.8933144
   6894,  -20.8960838,  -32.8595963
   6895,    23.899231,   4.58479404
   6896,   25.3016224,   17.3198929
   6897,    4.8901248,   22.6326313
   6898,   31.7212753,  -1.69722593
   6899,   4.01900434,   18.6197052
   6900,   3.21880412,   18.3618927
   6901,   27.5885906,   32.0575409
   6902,   18.0321388,  -31.5298138
   6903,   5.84861946,   8.51540184
   6904,   30.9227734,   26.8646278
   6905,   32.1535568,  -2.72392559
   6906,   31.6626396,   32.9566803
   6907,   3.10984373,   16.0017357
   6908,   8.87054825,   33.4186325
   6909,  -4.01442432,   9.16141701
   6910,  -4.99560118,   8.54791355
   6911,  -11.7694712,  -6.99065351
   6912,   32.3077507,  -28.8042011
   6913,   33.1903114,   20.3318863
   6914,   33.0573387,   19.7495728
   6915,   33.3452225,  -23.8141575
   6916,   31.7786541,   3.45475841
   6917,  -12.0708799,   32.5566139
   6918,   10.9726248,   -7.8214345
   6919, -0.374406219,  -9.83114624
   6920,   10.1346645,    6.2801857
   6921,   6.29866457,    25.506218
   6922,   20.0261478,   22.2567253
   6923,   26.9015675,   8.69487095
   6924,   27.6731434,    8.9117136
   6925,   23.3236103,  -31.3790245
   6926,   7.84792995,   31.9975109
   6927,   31.5827141,   23.8184566
   6928,   3.56048226,   20.1222973
   6929,   31.6658115,  -31.7956829
   6930,   32.6810951,   6.52260637
   6931,   1.39854002,  -9.57745743
   6932,   12.0504436, -0.980368972
   6933,  -32.5582924,  -31.8701992
   6934,  -32.6730766,  -29.1698437
   6935,  -22.9493923,   31.6713085
   6936,   32.8806915,   15.0556784
   6937,   33.0189857,    14.241642
   6938,  0.276058286,  -33.7934074
   6939,   18.3480644,   3.30047059
   6940,   18.8158684,   3.17077875
   6941,   18.9686642,   2.56019449
   6942,   1.83982468,   18.0090771
   6943,  -5.13373184,  -9.70037079
   6944,  -3.66061378,  -9.86068058
   6945,   2.93165302,    15.361866
   6946,   8.78625584,   7.17560863
   6947,   31.3349857,    -30.72328
   6948,   31.1897488,  -31.2044411
   6949,   33.0431023,  -8.90667152
   6950,   33.1610947,  -6.72811222
   6951,    32.012394,  -7.81330299
   6952,   32.1088867,   31.7482605
   6953,  -32.2574577,  -4.16329718
   6954,  -33.0224762,   6.97050047
   6955,  -33.1124039,   9.04089642
   6956,  -32.9391212,   9.85781097
   6957,  -33.0158615,   18.7027359
   6958,   -32.796051,   30.4737225
   6959,  -30.9517937,   31.4818611
   6960,   1.08112001,   31.3927155
   6961,   30.5889511,  -25.1421318
   6962,  -3.82461977,  -33.6400757
   6963,   15.6250286,   32.2355309
   6964,    16.492897,    31.877964
   6965,   9.85422897,   33.2561836
   6966,   13.1684265,   4.64922428
   6967,   27.9136543,   14.2262363
   6968,   14.3377981,  -33.1139183
   6969,  -20.6920967,  -31.9787941
   6970,  -21.5782471,  -31.6697121
   6971,  -13.8430185,  -33.1842728
   6972,  -11.3123198,   4.58241034
   6973,   13.7723103,  -1.82088304
   6974,   2.73095274,   33.2058945
   6975,   26.5096569,    31.296524
   6976,   -11.028924,    -10.63449
   6977,    23.331604,   19.9672184
   6978,   16.9181137,   24.3726025
   6979,   26.4323711,   7.11249447
   6980,   15.7574654,   2.18989539
   6981,  -11.2588034,   6.24334145
   6982, -0.982589185,   10.4585114
   6983,   16.7332325,   2.67019677
   6984,   22.5866356,  -31.7997227
   6985,   31.7245617,  -3.48699379
   6986,  -30.7177525,  -31.9251614
   6987,   2.57541656,   15.9605856
   6988,   21.3214951,   21.4679546
   6989,   31.0415726,  -3.15225458
   6990,   30.9507618,   33.1952744
   6991,   31.2298183,   32.3138924
   6992,   27.2529125,   8.10944462
   6993,   12.5574789,   3.08897281
   6994,   17.4022732,   2.28014994
   6995,   13.1116972, 0.0639229938
   6996,  -5.17971516,   9.00112438
   6997,   30.5502014,   32.5416374
   6998,  -22.8864479,  -33.1359863
   6999,   29.6944656,    32.904789
   7000,     15.08323,  -33.1893539
   7001,  -32.9911118,   26.4226952
   7002,   30.5322781,    3.7969594
   7003,  -33.0105743,   27.2927761
   7004,  -10.6432505,  -32.6550941
   7005,    -31.09519,   5.09125614
   7006,   4.07608414,   13.1812363
   7007,   3.80768514,   12.5294867
   7008,  -32.7988777,   1.88339674
   7009,   31.7131519,  -28.1993484
   7010,   32.0273209,   19.1613407
   7011,   28.7638474,  -32.1327972
   7012,   30.7122288,  -32.0996628
   7013,   31.1949272,  -31.6878662
   7014,   3.88496614,  -32.9487381
   7015,  -3.80507803,  -30.9614162
   7016,   32.0646667,  -6.40337515
   7017,  -31.8015099,   -30.811018
   7018,  -32.8540268,  -18.7869987
   7019,   21.3551407,   32.9990044
   7020,   8.85968781,   31.4968872
   7021,  -19.8716679,   32.7038612
   7022,  -18.1790562,   32.7610283
   7023,   13.1416073,   3.20600033
   7024,  -32.8988113,   -15.327095
   7025,  -32.8786583,  -14.4970703
   7026,   25.4446259,  -29.4507637
   7027,   3.01731944,   14.7660275
   7028,   30.2461987,   2.11133504
   7029,  -31.0003376,  -2.79898405
   7030,   31.1102829,  -4.09663677
   7031,   30.7884369,   -3.6844759
   7032,   31.3487015,  -23.7261066
   7033,   29.5934639,  -24.4546108
   7034,  0.924490511,  -32.9117622
   7035, -0.888624847,  -31.8759995
   7036,   -14.094841,   3.45153737
   7037,    28.762228,   14.4239063
   7038,  -32.4761086,    7.1903739
   7039,  -30.4505596,   5.77420139
   7040,  -23.7300243,   30.7788277
   7041,  -30.7631111,   30.6688194
   7042,  -29.9810658,   30.6573849
   7043,   29.0591984,   27.8840408
   7044,   32.0438156,   31.2588177
   7045,  -4.79979086,   9.99947834
   7046,   21.4191036,   2.89551282
   7047,   22.2104549,   2.81269097
   7048,   25.4977894,    2.7135098
   7049,   -4.2231822,  -10.3072624
   7050,  -2.80658174,  -10.7320452
   7051,  -6.22078609,  -10.2944098
   7052,  -6.52970028,  -10.5880976
   7053,   1.77654457,   15.8611269
   7054,   16.0829296,   31.2823238
   7055,   14.4314346,   31.5250683
   7056,   16.3803253,   30.5419521
   7057,    32.296257,   13.9946232
   7058,   29.6772232,  -2.06489611
   7059,  -11.8080091,   7.50756693
   7060,  -11.8112679,   5.58713436
   7061,  -12.2047882,  -9.67947006
   7062,   13.1958895,   2.53972816
   7063,  -32.1557198,  -20.4408035
   7064,   14.4436646,  -32.5007057
   7065,   -7.9329915,  -30.4784241
   7066,   21.9378395,  -31.8923359
   7067,   22.2049408,  -31.6232796
   7068,  -31.0100002,   4.03042507
   7069,   18.1405125,   1.90724552
   7070,   27.5301552,    7.2137146
   7071,   26.1754913,   18.9264774
   7072,   2.79908156,   22.4247246
   7073,   30.7176151,  -7.82652044
   7074,  -31.8398952,   24.6906643
   7075,   6.46639538,   10.6999216
   7076,   4.35039663,   10.4157276
   7077,    4.0117631,   9.66431522
   7078,  -15.5582361, -0.566567302
   7079,   14.8561659,  -7.70741653
   7080,   26.3795204,   3.38189149
   7081,  -3.74860144,   31.1752682
   7082,   30.0030403,   10.5645933
   7083,   5.69915533,    26.399498
   7084,   30.0924587,   1.28852868
   7085,   30.6673546,   16.7293835
   7086,   1.51689172,   29.9991608
   7087,   18.2867088,   2.64622903
   7088,   30.1511478,  -3.77062869
   7089,   1.60576224,    29.132225
   7090,  -5.09513187,   10.4613619
   7091,   32.2886124,  -5.65568829
   7092,   28.3738289,    15.901413
   7093,   29.1605511,   28.6114521
   7094,   1.29946625,   10.5524807
   7095,  -13.5979815,  -4.16625309
   7096,   31.5191593,    13.050375
   7097,  -32.1754494,   29.8981323
   7098,  -4.67658424,   10.9926786
   7099,    2.5419476,   9.73505402
   7100,  -31.0776939,   -30.004343
   7101,  -30.4716854,  -25.2416553
   7102,  -4.41048002,   31.6829643
   7103,    31.575243,   8.73116302
   7104,   31.7641106,   8.02286148
   7105,  -20.5552521,   31.7137661
   7106,   27.6968269,  -29.4206314
   7107,   30.2072468,   7.46264601
   7108,  -17.7005215,  -30.3860168
   7109,   29.6665096,   24.3183613
   7110,   29.8321915,   23.4751816
   7111,   30.9455833,   31.7821789
   7112,   13.1271162, -0.999392331
   7113,   33.1995926,   -23.247385
   7114,   32.3434601,  -22.6219063
   7115,   31.7945862,  -22.7011929
   7116,  -23.3947372,  -31.3344555
   7117,   25.5052776,  -28.5317669
   7118,   14.8401098,  -31.6917267
   7119,  -14.0495625,  -6.42285585
   7120,   3.89879084,  -30.8071632
   7121,  -16.4008656,   31.9008579
   7122,   2.77381516,   12.4095259
   7123,    2.2762022,   11.8831472
   7124,   4.93019962,   27.0032768
   7125,   -30.748951,   8.76962471
   7126,   9.89811134,   31.1584282
   7127,    3.1218729,  -30.4813023
   7128,   21.2490234,  -31.9229259
   7129,   21.6692276,  -32.1551857
   7130,  -31.8194141,   19.9704437
   7131,  -31.9310036,  -13.8421478
   7132,  -31.5934639,  -13.1451139
   7133,  -31.9807129,  -7.57402706
   7134,  0.983172417,  -11.1848421
   7135,   29.5213909,  -7.85090637
   7136,  -21.9998932,   29.7939243
   7137, -0.261462867,  -30.8420124
   7138,   29.3768005,  -29.2272205
   7139,  -5.95097828,  -10.5915966
   7140,  -3.48581076,   -11.049099
   7141,  -4.25493622,  -10.7622147
   7142,   29.1461372,   22.1691418
   7143,     15.66471,  -32.4340973
   7144,    15.620223,  -31.7134075
   7145,  -29.9114208,   4.12556314
   7146,  -29.3137665,   4.55642748
   7147,   30.5400009,   12.2098579
   7148,   -30.521307,  -10.7576914
   7149,  -31.8334293,  -8.09317684
   7150,   5.10308981,   26.4995232
   7151,   10.3559408,    29.881752
   7152,  -2.11470962,   12.1662874
   7153,   22.1230545,   1.94174039
   7154,   22.7846203,   1.69885588
   7155,   20.3569069,   1.87214899
   7156,   25.4240017,   1.94102466
   7157,   29.8025818,   13.1201544
   7158,   31.1014824,   8.47410297
   7159,  -13.1842585,  -9.53798771
   7160,   27.9048328,    26.461565
   7161,  -12.7010279,   5.90346527
   7162,  -15.0303555,  -30.4292107
   7163,   28.8048363,    30.167717
   7164,  0.689976454,   29.8344193
   7165,  -3.88715005,   29.9095078
   7166,  -4.54005194,   11.5384817
   7167,  -6.34058285,  -11.8100243
   7168,  0.595288217,   16.3093586
   7169,  0.100076839,   16.4287834
   7170,   14.4098225,   30.6394234
   7171,   19.1994572,    25.554821
   7172,  -30.6108398,   6.80151367
   7173,  -11.4894037,   11.2138481
   7174,   2.31215668,   21.6258965
   7175,   10.1615496,   31.9340534
   7176,  -13.8946533,  -7.26462221
   7177,   13.8853817,   -8.8683672
   7178,   9.61333466,  -10.8019114
   7179,   10.0681152,  -11.0586367
   7180,  -13.2180576,   30.8196449
   7181,   15.7626505,  -30.2927952
   7182,   18.4412613,  0.775846481
   7183,   21.1458378,  -30.9031963
   7184,   20.6194801,  -30.5011692
   7185,   21.5904522,  -31.4232616
   7186,  -27.8329983,   -21.170311
   7187,  -5.68237686,  -11.5764942
   7188,   31.3926773,   -22.224205
   7189,   2.23563576,   10.1926527
   7190,  -30.3115406,   2.29063225
   7191,     10.22328,   30.5608826
   7192,   29.2319527,   23.5852985
   7193,   29.9755058,   8.31229687
   7194,   4.10190821,   28.4815006
   7195,   30.1427441,   16.1776257
   7196,  -6.17160511,  -13.1006222
   7197,     25.52598,   20.3023624
   7198,   29.3349953,   19.0744381
   7199,  -5.89433098,  -11.8988667
   7200,  -29.6815548,  -27.9993401
   7201,   18.4974442, -0.235333204
   7202,   30.9226475,  -23.4052715
   7203,  -2.51558518,   -29.221035
   7204,  -5.78086901,  -29.6018429
   7205,  -26.7675343,  -33.3550148
   7206,  -29.6350574,  -26.0519695
   7207,   26.4382553,   19.5530243
   7208,   12.7604265,   30.0609837
   7209,   16.4492493,   28.5588779
   7210,   3.65339327,   25.8296432
   7211,   29.0275269,   29.6120968
   7212,  -12.5356789,   11.1701126
   7213,  -13.0398846,   10.7194042
   7214,   3.80145693,  -10.6164303
   7215,  -14.3270578,  -5.65330887
   7216,  -13.8379993,  -7.98190594
   7217,   11.8936195,  -10.0956249
   7218,   1.22200584,  -31.9491005
   7219,  -14.6975193,   31.8741856
   7220,   15.1594563,   29.7722073
   7221,  -4.83950567,   12.3455181
   7222,   15.7302494,  -5.33437586
   7223,   -5.4450717,     31.60676
   7224,  -25.5500679,  -31.8040447
   7225,  -30.6326256,   -26.299057
   7226,   30.2457371,   -23.167366
   7227,  -29.5251884,  -3.76351309
   7228,   27.9003239,  -24.2423344
   7229, -0.657502234,   15.8685122
   7230,  -31.0246906,   27.7024593
   7231,  -29.6715221,   28.6643124
   7232,   10.2808275,  -11.7223358
   7233,   3.37328291,   -29.647398
   7234,   27.0066738,  -25.4910374
   7235,   1.75943089,  -11.3638277
   7236,    3.2335968,  -11.1359987
   7237,   26.6686668,  0.849437296
   7238,   21.5054626,  -28.0395393
   7239,   1.05957973,   14.6278782
   7240,  -17.1743774,   30.9894581
   7241,   29.9442368,  -28.4744072
   7242,   28.8312321,  -28.6108837
   7243,   12.0772905,  -29.0177364
   7244,  -5.74365473,  -10.9383821
   7245,   1.80651546,   12.2859535
   7246,   1.44972384,   11.8486891
   7247,  -28.7642612,   4.75361538
   7248,   19.9150562, -0.0399588197
   7249,   27.0653496,   26.5983791
   7250,   26.6368389,   25.1184673
   7251,   12.6659594,  -10.4400158
   7252,   14.3859272,  -9.46098995
   7253,   30.0219097,  -22.7060871
   7254,  -31.2021809,  -7.75988579
   7255,   -29.952919,   3.08953142
   7256,  -2.34639406,   12.6966839
   7257,  -2.44541693,   13.1033039
   7258,  -16.2520885,   3.67865872
   7259,    -14.55828,  -4.91858768
   7260,   26.6070976,  -4.05226326
   7261,  -27.8945141,   6.78205776
   7262,  -7.43021202,   11.9604664
   7263,  -31.1966972,  -14.6191845
   7264,  -31.2182331,  -15.8897457
   7265,  -30.4184761,    -17.16399
   7266,   27.9377327,   19.7755928
   7267,  -21.0842972,   28.8307877
   7268,   27.6463051,  -27.6718407
   7269,  -28.0888672,  -23.1653728
   7270,   -27.930233,  -18.6231327
   7271,  -18.0637741,  -28.8655014
   7272,  -2.49077106,   14.3396149
   7273,  -13.4240332,   29.9224339
   7274, 0.0147779165,    20.211132
   7275,   1.63424385,   28.3323822
   7276,   15.1832075,  -30.2593899
   7277,   14.9681759,  -29.6804237
   7278,  -30.1552906,   9.38752174
   7279,  -30.2550087,  -10.2063923
   7280,   -29.506443,  -10.0887823
   7281,  -11.7811747,  -14.8019152
   7282,  -20.3463154,    29.849329
   7283,  -28.8338451,  -25.3471375
   7284,   28.5826931,  -28.1181164
   7285,  -19.0878716,   1.11395252
   7286,  -29.7845707,  -7.72652006
   7287,   28.7168293,  0.609440506
   7288,   20.2774277,  -28.7137108
   7289,  -29.1562004,   28.2532864
   7290,   1.95715213,   10.5784941
   7291,   19.0098953,   29.5459766
   7292,  -2.01968503,   12.6265316
   7293,  -2.00107765,   13.0920286
   7294,   29.4897728,  -5.92358303
   7295,   26.9186306,  -27.7705326
   7296,  -2.66593122,  -28.1597424
   7297,    3.1455524,  -11.5932465
   7298,  -1.82608962,   14.2655315
   7299,  -14.3079748,  -7.86970282
   7300,    30.360651,  -22.2539711
   7301,  -15.2328835,  -5.87532759
   7302,  -15.6074648,  -6.44058371
   7303,  -15.2214108,  -5.15981436
   7304,  -29.6260452,   9.88407135
   7305,  -3.66683221,   -11.467433
   7306,   3.59905601,  -28.8505249
   7307,   2.89627934,  -28.5281067
   7308,    3.2454164,   26.8679543
   7309,  -7.02588177,   11.7772932
   7310,   11.7444172,  -28.0282917
   7311,    25.310133,   29.2881317
   7312,  -28.8687744,  -26.9667397
   7313,   -30.294138,   20.8471069
   7314,   1.07679296,   27.4612675
   7315,   28.1378613,  0.552793324
   7316,  -19.1508312,  -28.9029865
   7317,   21.9802608,   1.15071559
   7318,  -5.31425142,  -11.8853226
   7319,   -4.9874835,  -11.4977217
   7320,  -27.9015636,   4.93612385
   7321, -0.733509421,   12.3815575
   7322,   20.8676853,  -27.0891247
   7323,   2.00224376,   27.4295959
   7324,  0.107147619,  -29.1654778
   7325,   25.5722008,  -26.8837795
   7326,   24.9433479,  -26.7781467
   7327,   26.0148335,   26.0602322
   7328,  0.715728641,   12.8719769
   7329,   1.25163352,   12.5348091
   7330,   2.80089569,   27.6536655
   7331,   2.55119824,   27.0992146
   7332,  -13.1277523,   11.6477194
   7333,  -14.1179123,   10.8325939
   7334,   15.0637636,  -9.94411373
   7335,   29.4665012,  -11.2061529
   7336,   28.5291367,  -12.1573305
   7337,   -10.307765,   26.2849979
   7338,  -31.5075798,   19.3752213
   7339,  -7.67189932,   12.6688814
   7340,  -7.95032167,    13.179285
   7341,   4.96027756,  -28.7399464
   7342,   12.4484997,  -28.3125286
   7343,  -1.73444939,   14.8525705
   7344,  -4.74258947,   14.3486214
   7345,  -18.9848614,   -2.6078701
   7346,  -17.3288326,   3.88363218
   7347,  -19.8973618,    2.3443594
   7348,   -9.4496336,   13.6522875
   7349,   26.4261169,  -23.1701775
   7350,  -22.3371639,  -27.5821877
   7351,  -27.1868076,  -18.1792145
   7352,  -27.5215626,  -17.5432568
   7353,   27.4262962,   22.6065006
   7354,  -27.7216244,  -6.03625298
   7355,  -26.6182518,   7.15172768
   7356,    27.560791,   1.49018705
   7357,  -10.3634634,  -26.6246643
   7358,  -19.2311916,   28.1483116
   7359,   11.1204195,  -27.1730385
   7360,  0.915743113,  -31.5083351
   7361,   1.11523139,  -31.0318985
   7362,  -4.26539755,   27.5658054
   7363,  -10.8054171,  -15.3874645
   7364,  -28.1417179,  -24.7809372
   7365,  -27.9678574,   -26.142067
   7366,  -26.3439808,  -21.9507217
   7367,  -13.4875374,  -29.2621326
   7368,  -18.6117153,   -28.283905
   7369,  -24.6909466,  -28.2810898
   7370,  -29.9000587,  -16.4635906
   7371,   -0.5026263,  -14.4963369
   7372,   26.7950935,  -5.78588867
   7373,   1.74406719,  -29.7569885
   7374,  -14.3475599,   29.1746883
   7375,  -28.3334217,  -2.56936002
   7376,  -28.9708958,   16.9871578
   7377,   6.90459633,  -25.8930607
   7378,   21.6994667,  0.466620415
   7379,   21.4216194, -0.315224618
   7380,  -20.1183491,   1.39875031
   7381,   17.3266716,  -8.82825089
   7382,  0.842205703,  -13.4967566
   7383,   17.2757282,  -7.46298218
   7384,  -28.5119762,   3.55974483
   7385,    -4.978652,   13.6061382
   7386,    29.064024,  -10.3837595
   7387,   28.4215012,  -5.48792982
   7388,  -1.50485098,   18.7049274
   7389,   23.6352711,  0.401304603
   7390,   23.7269878, -0.159993127
   7391,   29.0694237,  -9.27118111
   7392,   28.5264187,   -8.9296627
   7393,   29.4607868,  -9.60134125
   7394,  -1.40746474,   13.2265015
   7395,  -1.68766046,   12.9884729
   7396,   14.1956758,  -26.8359528
   7397,   13.2383108,  -27.8511925
   7398, -0.00588564761,  -13.8262167
   7399,  -21.5986595,  -27.3703136
   7400,   11.6864033,  -12.7387114
   7401,   26.7975483,  -26.2136555
   7402,  -30.1052837,  -8.29764271
   7403,     4.511796,  -28.4571552
   7404,  -10.5830946,   13.6560392
   7405,   17.2522869,  -3.79378724
   7406,   17.3100567,  -3.11898279
   7407,    26.698061,   22.0363884
   7408,   25.5567608,  -26.0955849
   7409,   24.9878922,  -26.0898705
   7410,   24.4451637,  -25.9266357
   7411,  -4.60296249,  -11.9286509
   7412,  -2.23408961,   27.0549469
   7413,  -17.4817486,  -5.95875311
   7414,  -16.9560032,  -7.26535177
   7415,  -14.9303112,   5.82837868
   7416, -0.0554372892,  -14.2816095
   7417,  -27.8818226,  -16.9051151
   7418,  0.363489389,  -14.5646763
   7419,  -6.63537312,   13.7613983
   7420,  -15.4904537,   9.19162846
   7421,   29.8075142,  -18.6759014
   7422,  -28.6660671,  -12.9513721
   7423,  -25.3716583,   -27.339386
   7424,   28.2211075,  -9.54895306
   7425,   17.5398197,  -6.14469671
   7426,  -5.75421572,  -26.6968288
   7427,   -29.699461,  -17.0315247
   7428,  -29.0007019,  -16.6968746
   7429,  -29.4533443,  -16.0425472
   7430,   28.5647068,  -10.3196058
   7431,  -25.6998653,  -28.8427944
   7432,  -1.19285953,    14.221612
   7433,   22.9407387,  -0.79103142
   7434,   2.81356764,  -12.8945322
   7435,  -29.3535404,   26.0797157
   7436,   25.1460228,   26.1360149
   7437,   25.7786808,    27.914587
   7438,  -15.3568411,   10.0979605
   7439, -0.904993951,   26.8449745
   7440,    27.455864,  -20.2948895
   7441,  -7.19527769,   24.6728554
   7442,  -5.73641586,   13.8677998
   7443,   26.3374958,   -6.2082715
   7444,   25.6440067,  -2.49933124
   7445,   25.1967888,  -3.19726372
   7446,  -10.9393663,   25.5375061
   7447,  -9.15361404,   23.7576981
   7448,  -28.8000641,   18.8458691
   7449,    6.3528266,  -13.9835234
   7450,   5.82225418,  -14.1511564
   7451,  -1.82849073,    16.770256
   7452,  -5.02112436,   14.8095531
   7453,   -29.963068,   12.1722717
   7454,   14.5746269,  -11.5165482
   7455,  -5.59736633,   28.3094902
   7456,  -5.27885246,   27.7688885
   7457,  -19.0312729,    3.7468605
   7458,  -21.0459042,   2.46095562
   7459,   12.6240931,  -13.3921061
   7460,  -12.9170218,   27.4402504
   7461,   28.4927883,  -13.1989136
   7462,   29.3582706,  -15.0245876
   7463,   19.4759655,  -26.4473228
   7464,   14.8049526,  -25.3158169
   7465,   -5.8885808,  -24.8706665
   7466,  -13.6796627,   12.0902243
   7467,  -14.6234798,   11.3539553
   7468,   25.1626587,  -23.5369053
   7469,   4.31485939,  -27.4175549
   7470,   3.58425188,  -26.9370861
   7471, -0.788704753,   19.7715607
   7472,  -23.1092911,  -27.0825253
   7473,  -24.4270096,  -26.7615376
   7474,  -15.2845917,  -10.9046803
   7475,  -15.5332346,   6.18084574
   7476,  -7.62134266,   -15.515296
   7477,    18.175066,  -7.69104719
   7478,  -13.8167334,   28.3411636
   7479,  -23.2334728,   27.1897449
   7480,  -1.98860204,  -14.9632835
   7481,   17.3874016,  -9.69352722
   7482,   28.8356113,  -19.1804028
   7483,  -26.7318249,  -17.0919037
   7484,  -25.5199966,   -21.955595
   7485,   -25.243988,  -23.3236656
   7486,  -16.2770462,  -25.8019447
   7487,   5.98052073,  -25.8481121
   7488,  -6.46782589,   25.9357452
   7489,  -2.29735112,    17.774807
   7490,  -18.2647018,   27.3884277
   7491,   26.8856049,  -9.27276325
   7492,  -29.6562042,  -8.58522224
   7493,   20.3578548,  -2.74846101
   7494,   27.9152718,   -12.718811
   7495,   13.7761431,  -25.6368179
   7496,   5.42688179,  -25.6094055
   7497,  -1.43416393,   26.8774509
   7498,   22.2589588,  -25.7832012
   7499,  -5.11962461,   -12.901906
   7500,   24.9770603,  -25.5627213
   7501,   24.5088596,  -25.3058834
   7502,   21.2322464,  -2.07553172
   7503,   -16.957325,  -6.50459337
   7504,   2.05172324,  -12.5543804
   7505,  -14.7378311,  -13.9670591
   7506,   -15.512641,   8.46502113
   7507,   19.8244324,  -25.7241802
   7508,   18.3473053,  -25.2717495
   7509,   1.44873822,   26.0845985
   7510,  0.943693757,    25.762228
   7511,  -18.0000134,  -5.19992352
   7512,   17.9758492,  -3.22619963
   7513,   26.1600494,  -21.4842644
   7514,  -18.6455555,  -4.60132885
   7515,  -20.5870609,   1.06390738
   7516,  -27.0665588,  -26.1631298
   7517,  -7.86248922,   14.9181204
   7518,  -12.0318842,  -26.4100876
   7519,   12.3321257,  -12.6019211
   7520,  -4.93210602,   26.3024025
   7521,  -16.8178177,  -8.90200996
   7522,  -17.6501408,   28.3126354
   7523,  0.935377657,   -26.846571
   7524,  -2.37226748,     21.38377
   7525,  -25.9620209,  -18.8691368
   7526,  -4.38110828,  -12.6025047
   7527,  -17.9829006,  -7.55022573
   7528,  -1.21007109,   14.6968184
   7529,   5.69969177,  -25.0533066
   7530,  -26.3098392,  -27.2846222
   7531,   26.4709492,  -6.74764252
   7532,   21.3075542,  -25.7623196
   7533,  -28.3349113,   11.1441317
   7534,  -4.83600998,   15.4782858
   7535,  -5.98877764,    24.705246
   7536,   -1.9311167,   23.5139999
   7537,  -3.34254932,   16.6708317
   7538,  -28.7752399,  -15.6427994
   7539,  -28.5622616,  -14.7971096
   7540,   2.88609171,  -26.4195538
   7541,  -29.2933559,   12.3745203
   7542,  -5.09688711,  -24.7243462
   7543,  -25.5956688,  -3.21796322
   7544,   18.8109016,  -3.57263279
   7545,   24.1065845,  -24.3236256
   7546,   13.4921789,  -12.1118937
   7547,  -21.1472855,  -25.5894909
   7548,  -11.8728724,   15.3772392
   7549,  -15.8877134,  -11.8406992
   7550,   6.82316208,   -14.412056
   7551,   5.60280228,  -15.0745821
   7552,     6.483634,  -14.5756721
   7553,  -15.6931782,   11.6312666
   7554,  -12.2693014,    25.799427
   7555,  -11.3243732,   24.3868732
   7556,   24.6797752,  -23.2824249
   7557,   18.1305084,  -9.96775246
   7558,   28.4330597,  -14.0234652
   7559,  -1.73155117,  -25.3104115
   7560,   13.5332727,  -24.7295265
   7561,  -24.3745632,  -20.5130825
   7562,  -24.0217648,   -19.758028
   7563,  -9.64657497,    23.134407
   7564,  -7.64021635,   23.8516121
   7565,  -3.77001667,   18.5638428
   7566,  -4.30843973,   18.0837078
   7567,  -17.0579128,   5.82067871
   7568,  -18.8551178,   4.74143744
   7569,  -10.6232557,  -16.8085098
   7570,   18.6171722,  -6.97768497
   7571,  -28.2164974,   10.1476793
   7572,   -27.704586,   10.6607742
   7573,  -26.4914951,   21.0809002
   7574,  -25.8441772,   21.6918793
   7575,  -22.2435703,    2.6216464
   7576,  -14.0609226,   -17.999733
   7577,  -13.5204229,  -18.6558208
   7578,  -16.4313126,    -24.46731
   7579,  -27.1807499,  -12.2649899
   7580,  -18.8661232,   26.4258595
   7581,  -1.72408223,   26.4452209
   7582,  -11.2797184,  -24.8426437
   7583,  -26.6395645,  -9.17220974
   7584,   26.6108971,  -11.8269196
   7585,   28.1079426,  -10.0891218
   7586,   27.0643444,  -19.1996536
   7587,  -24.8486137,   -23.841568
   7588,  -24.5687866,  -23.0587425
   7589,  -24.7909813,  -22.5247269
   7590,  -4.93967199,  -15.5026417
   7591, 0.0131647531,  -15.9137831
   7592,   25.2305984,  -8.94860744
   7593,   25.0097179,  -9.75042534
   7594,    27.802887,  -14.4913492
   7595,   12.6256084,  -14.7527542
   7596,  -17.1895428,   9.80687141
   7597,   11.2354374,  -17.0907669
   7598,  -28.5567532,   26.3144531
   7599,  -27.9515514,   26.7262669
   7600,  -27.1917439,   18.0333138
   7601,   25.0113392,  -6.90384579
   7602,  -24.2674465,  -22.4332771
   7603,  -1.85542262,  -24.6181126
   7604,  -11.1222353,   23.6694221
   7605,  -19.2026043,  -4.72846556
   7606,  -25.3316345, -0.648162007
   7607,   8.55737495,  -15.6089439
   7608,  -18.0435658,   5.96897697
   7609,  -17.8900146,   6.65815401
   7610,  -20.5343914,  -25.2587833
   7611,   18.0201416,  -24.7582855
   7612,  -21.0565796,  0.481081933
   7613,   18.8730049,   -7.8447876
   7614,   19.6898365,  -4.19114304
   7615,  -12.8269339,  -25.4760246
   7616,   10.1013193,  -17.1180878
   7617,  -26.8404675,   26.8263149
   7618,   10.5023661,  -25.0715885
   7619,  -4.31093836,  -16.0362129
   7620,  -5.01820421,  -14.9544926
   7621,  -4.52205706,  -14.6454659
   7622,    -25.42593,   -18.118124
   7623,   -8.6358614,   15.4128923
   7624,  -19.9477406,   5.06979609
   7625,   23.4504242,  -23.8586082
   7626, -0.145102873,  -24.8329735
   7627,  -24.4273148,   -3.4700799
   7628,   13.1395283,  -12.1418686
   7629,  -27.4701633,   27.0945129
   7630,   13.4620705,  -12.5921764
   7631,     23.30793,  -3.22652507
   7632, -0.854974449,  -24.6784706
   7633,  -23.5624561,  -23.3030262
   7634,  -1.55031061,   25.5772076
   7635,   24.8418102,  -7.92066908
   7636,   24.2301941,  -8.69540691
   7637,  -24.5300026,     1.799119
   7638,   -4.4775362,  -23.6641121
   7639,  -15.0629253,  -15.0235968
   7640,    24.424305,  -22.5039577
   7641,   -19.057415,  -8.08526516
   7642,  -28.0974274,  -15.2103348
   7643,  -24.2915421,     8.777565
   7644,  -5.18872452,   15.8673277
   7645,  -25.9259663,   26.2149887
   7646,  -25.3576622,     26.27635
   7647,   6.34109354,  -15.3659039
   7648,   7.77147484,  -15.9383135
   7649,  -20.9556427,  -24.7328663
   7650,  -23.2063046,  -24.7183323
   7651,  -12.2454967,   24.5819912
   7652,  -12.5490665,   25.0683708
   7653,  -2.99393225,   24.0026836
   7654,   26.5293274,  -17.5097561
   7655,   14.8991642,  -13.3230495
   7656,   15.0446539,  -23.6739426
   7657,  -6.86218977,   23.1399364
   7658,  -7.93072033,   23.1790905
   7659,  -23.6562462,  -3.22324014
   7660,  -24.2253819,  -1.75080776
   7661,   4.70127583,  -15.8398981
   7662,   3.48876309,  -14.7109404
   7663,  -11.7703657,    16.165266
   7664,  -15.0188732,   12.7116756
   7665,    25.969223,  -11.4806328
   7666,    25.478653,  -12.0220814
   7667,   26.5431919,  -18.6291599
   7668,  -25.6622276,  -9.71681118
   7669,  -5.39779472,   18.1981468
   7670,   25.6004906,  -10.6102781
   7671,  -6.78663683,   -23.010704
   7672,  -14.0892973,  -19.2770901
   7673,  -17.1925964,    25.658783
   7674,    -3.716851,   23.8154488
   7675,   0.96687007,  -15.8231621
   7676,   23.2581844,  -7.32312822
   7677,  -22.0970516,   23.4503403
   7678,   -20.440052,   25.0708504
   7679,  -24.8136215,  -17.0896797
   7680,  -25.7277069,  -14.8920364
   7681,   -8.6692028,  -24.7005901
   7682,  -9.18643475,  -24.2171383
   7683,  -10.7454052,  -23.8990974
   7684,  -9.57401371,  -23.7649326
   7685,  -12.6028519,  -24.2685795
   7686,  -3.48572493,    -15.79422
   7687,   20.9201756,  -8.22750092
   7688,   9.86674881,    -24.18186
   7689,   5.08466911,  -24.3198395
   7690,   -24.942255,  -6.29063463
   7691,  -16.4729862,  -14.2512951
   7692,  -21.5448208, -0.275783777
   7693,  -21.5808563,  0.275800198
   7694,  -24.9286766,  -4.75899553
   7695,    24.075182,  -10.5454149
   7696,  -26.1276932,  -8.29610348
   7697,  -24.6858425,  -24.6253834
   7698,  -23.9747066,  -24.7256565
   7699,  -22.3424606,  -4.23136568
   7700,  0.392878443,  -24.3892422
   7701,  -24.7370205,  -4.25178289
   7702,  -4.11113739,    16.523632
   7703,  -19.1460094,   7.00469398
   7704,  -19.6262531,   6.09656286
   7705, -0.0349827558,  -23.7371807
   7706,   20.4572983,  -4.83165598
   7707,  -11.5588589,  -17.7683258
   7708,  -11.9896517,  -18.1750183
   7709,   11.3176451,   -24.408823
   7710,   27.3076382,  -15.0436106
   7711,   26.7345829,  -15.9357662
   7712,   25.5453453,  -21.4552727
   7713,  -19.8085575,  -23.6919193
   7714,   22.4830093,  -24.0064888
   7715,    3.4479475,  -24.5380249
   7716,   2.38786602,  -24.5489254
   7717,   21.4426689,  -23.9322586
   7718,  -23.0628796,  -21.7233276
   7719,  -25.8651505,   11.3672638
   7720,  -3.76145434,     -23.3827
   7721,   -18.587265,  -9.44585228
   7722,   19.4603233,  -11.3390579
   7723,  -6.86336613,   22.2948017
   7724,  -22.0851765,  -1.00060952
   7725,  -23.7332172,  -19.0259342
   7726,  -23.8710556,  -17.6353512
   7727,  -19.4611282,   24.8746319
   7728,  -8.78600979,  -23.7016525
   7729,  -15.5314093,   13.1443644
   7730,  -24.6485081,   20.5973854
   7731,   -7.7345376,   16.5772381
   7732,  -19.9948196,   -8.8450098
   7733,  -23.3379116,  0.911749303
   7734,  -24.0121536,   3.22833014
   7735,  -1.46147633,   -22.845993
   7736,  -17.8026562,   24.5942307
   7737,  -16.2459545,   24.8865356
   7738,   4.25350428,  -16.1199589
   7739,   7.61636591,  -16.4685421
   7740,   18.8483772,  -22.6230412
   7741,   23.3033161,  -10.5409679
   7742,    22.746397,  -7.77746153
   7743,   22.0992718,  -7.58821106
   7744,  -23.6580067, -0.736791611
   7745,  -23.8666935,  0.523254156
   7746,  -23.1662331,  -2.19866586
   7747,  -23.1282005,   9.02752113
   7748,  -11.6306868,   16.9401531
   7749,  -12.2891388,   17.2078705
   7750,  -19.8745823,    6.8364892
   7751,   1.85050797,  -15.5492754
   7752,  -21.9971237,     22.27561
   7753,   4.45359564,  -16.5371342
   7754,   23.1965961,  -11.3037796
   7755,   26.5747929,  -15.1087332
   7756,  -20.5986233,  -24.3866806
   7757,  -7.67669582,  -18.2271576
   7758,  -7.45296192,  -18.9702835
   7759,   -12.456522,  -23.4377613
   7760,   9.95220375,  -23.4356136
   7761,    3.5278585,  -23.3727989
   7762,  -6.01953602,  -22.3031616
   7763,   6.16578102,  -16.0445843
   7764,  -18.7946453,    9.6915884
   7765,   17.6636791,  -12.6518059
   7766,   21.1869354,  -9.35359383
   7767,  -18.4318447,  -22.5206795
   7768,  -14.9055977,  -23.8819733
   7769,  -5.46570206,   17.2405224
   7770,   12.0783615,  -22.7790413
   7771,  -24.5750942,   22.9387608
   7772,  -3.44821072,   -17.257349
   7773,  -7.16295528,   16.7866135
   7774,  -6.44108772,    16.393404
   7775,  -4.81301546,  -22.2734814
   7776,   22.9050007,  -23.5808964
   7777,  -4.68373203,   20.0323601
   7778,  -22.5218086,  -1.85901976
   7779,  -19.6502514,   24.0452118
   7780,  -13.1886568,    24.598547
   7781,   21.0723038,  -5.41933203
   7782,  -2.69893241,  -18.0734978
   7783,  -19.7466412,   9.18449306
   7784,  -17.2444649,  -22.5461788
   7785,  -9.12028313,  -22.7637997
   7786,  -19.0254879,  -14.9612551
   7787,  -25.3567848,   10.8031521
   7788,   3.78103733,  -16.3864155
   7789,   6.62847471,  -16.5672455
   7790,   26.3230057,  -15.5909624
   7791,  -23.6127281,   20.3075199
   7792,  -20.6438408,   7.60369158
   7793,  -24.3797054,   19.6907501
   7794,  -24.5335751,   17.4447441
   7795,   23.8931847,  -22.1771774
   7796,   7.29098511,  -17.1201248
   7797,   4.66610527,  -17.2356167
   7798,   -8.8686657,  -21.3732395
   7799,   1.08387065,  -22.9960918
   7800,  -23.0708637,  -16.9384956
   7801,  -23.2490997,  -17.5491867
   7802,   20.0368786,  -6.63875484
   7803,   25.6182137,   -13.912941
   7804,   10.8810577,  -20.1345177
   7805,   -18.472868,  -21.3455429
   7806,   22.5899677,  -10.5615454
   7807,  -10.8985119,   17.4715195
   7808,  -16.0786629,   24.0272789
   7809,   -18.539135,   13.0740433
   7810,  -10.8628778,  -18.6199608
   7811,   14.7094898,  -22.1524944
   7812,   10.0298367,  -22.8254776
   7813,   7.33218479,  -21.7449207
   7814,  -22.3661423,   -6.3427639
   7815,  -8.76007938,  -20.5791283
   7816,  -13.5518427,   22.8097267
   7817,  -16.6088371,   16.3241882
   7818,  -24.9217224,     12.71134
   7819,  -24.2150288,   10.8506212
   7820,  -21.9506855,   6.45821476
   7821,   20.1310616,  -12.2958527
   7822,   17.8262272,  -11.9694586
   7823,  -21.2559586,  -18.6132774
   7824,  -23.0762825,  -7.62420034
   7825,  0.260884792,  -22.7088451
   7826,   2.96216559,  -23.9746494
   7827,   12.5009022,  -21.3739471
   7828,  -5.37623549,   19.8420811
   7829,  -6.92741632,  -20.2589493
   7830,  -23.9535599,  -11.0091534
   7831,  -17.6579342,  -15.7968531
   7832,   4.52878618,  -20.2538166
   7833,  -25.1950092,   23.2223587
   7834,  -6.70237064,   16.8254395
   7835,  -22.6197529,  -8.01926231
   7836,   -12.557725,   21.3647404
   7837,   7.37095928,  -17.6858616
   7838,  -11.2944098,  -18.1463871
   7839,    22.060133,  -10.0519791
   7840,   21.9445648,  -10.5339918
   7841,   21.6464939,  -11.7829494
   7842,  -6.22195339,  -20.6223888
   7843,  -21.6718998,  -9.21983624
   7844,  -21.5734806,   -10.003871
   7845,  -18.0485477,  -20.8867607
   7846,    -13.42204,   -22.488348
   7847,   -21.253334,   7.61577177
   7848,  -5.37077618,  -21.7650414
   7849,   20.1128502,  -13.1631279
   7850,   20.8556366,  -13.1272383
   7851,   21.3168736,  -21.8998241
   7852,   5.77010965,   -17.368187
   7853,  -17.3632107,  -17.5080204
   7854,  -17.0142384,  -20.2988262
   7855,    5.6270318,  -17.8379135
   7856,  -19.6860085,  -15.7929554
   7857,   10.2695036,   -21.983696
   7858,  0.983609676,    -22.17103
   7859,   24.6360588,  -14.0635109
   7860,   20.9442234,  -19.4858055
   7861,   -20.769659,  -19.5315361
   7862,   4.41336679,  -17.8153114
   7863,   4.87258291,  -18.1192856
   7864, -0.820524335,  -20.5141773
   7865,    8.8581543,   -21.448225
   7866,  -14.3503599,   22.3812275
   7867,  -8.26373386,   17.9306755
   7868,   9.89143562,  -20.0293713
   7869,   14.5684614,  -18.0407372
   7870,   -10.764431,     18.01931
   7871,  -11.7512341,   18.6712284
   7872,  -14.0780239,   20.4795227
   7873,  -23.3580208,  -11.3944063
   7874,  -23.1046619,  -10.0079346
   7875,    -18.44454,  -20.3328285
   7876,  -20.5584927,  -11.2254276
   7877,   12.2084999,   -20.624649
   7878,  0.260858655,  -20.1425133
   7879,  -24.1011391,   16.1807499
   7880,  -21.1001015,  -17.9692879
   7881,  -22.3458633,  -17.2443905
   7882,  -16.4517193,  -19.8314266
   7883,   -16.968811,  -19.7107315
   7884,  -16.0265045,   -19.963232
   7885,  -19.0718765,  -16.3767948
   7886,  -19.1427383,   12.9436646
   7887,  -19.5918255,   13.3844118
   7888,  -16.8527603,   17.3107185
   7889,  -17.0717468,    15.801198
   7890,   3.13708282,  -15.3015995
   7891,   2.82383537,  -15.7497444
   7892,    21.510767,  -12.4369612
   7893,   23.3980522,   -13.014204
   7894,   24.1108665,  -13.3578396
   7895,   4.22171211,  -19.2866096
   7896,  -22.0305252,   10.6995239
   7897,   21.8952122,  -21.0900784
   7898,   22.0879879,  -21.7661648
   7899,   2.54207087,  -21.1306992
   7900,  -17.6942978,  -20.4657955
   7901,    9.9918108,  -21.4608364
   7902,  -4.96449852,  -21.8485584
   7903,  -21.1690865,  -11.9330683
   7904,  -17.6384964,  -19.0357628
   7905,  -21.3607273,  -13.1801825
   7906,  -21.7767372,  -13.7305307
   7907,  -22.3811169,  -10.2037077
   7908,  -22.1979866,  -10.9950743
   7909,  -22.2204685,  -11.8898001
   7910,   24.7722511,  -13.1970415
   7911,   12.7688866,  -20.1918201
   7912,   12.6595221,  -20.7672901
   7913,   18.6947098,  -15.4905691
   7914,   6.66348219,  -18.9226265
   7915,  -21.0073566,  -15.8639555
   7916,  -18.3925686,  -18.2081051
   7917,  -22.7778263,  -11.0481691
   7918,  -22.8116417,  -10.5916805
   7919,  -20.2375164,    12.124383
   7920,  -20.2807655,   11.6332092
   7921,   20.0078716,  -21.1632595
   7922,  -3.13467431,  -19.5014858
   7923,  -5.17525053,  -21.2771912
   7924,   21.1200695,   -13.870347
   7925,  -17.5350876,  -19.6990223
   7926,  -17.4147072,    -20.17202
   7927,    1.2810843,  -21.7018642
   7928,   16.7558746,  -18.0933533
   7929,  -22.1102333,   12.4819613
   7930,  -13.5205193,    21.050581
   7931,   22.9348736,  -13.7012587
   7932,   21.4043884,   -13.005374
   7933,   9.07474995,  -20.1034737
   7934,   7.93477631,  -19.5527534
   7935,   7.71513081,   -20.277935
   7936,   7.07098818,  -19.9768448
   7937,    5.7840786,  -19.3599491
   7938,  -16.7943859,   22.3616886
   7939,  -18.7684441,  -19.8430519
   7940,  -20.2650623,   -20.806427
   7941,   -20.290947,  -15.3515291
   7942,  -20.3380966,  -15.9081144
   7943,   13.1790495,  -20.4257145
   7944,   14.7246275,   -20.780798
   7945,  -23.7704716,   15.2200336
   7946,  -17.5588455,   15.3216801
   7947,  -19.3688297,   14.3302097
   7948,  -20.6515045,   20.5378437
   7949,   20.3932896,  -19.1495476
   7950,   2.35012364,  -18.6975021
   7951,  -19.5549622,  -19.0918388
   7952,  -4.95528984,  -20.9078293
   7953,   15.2209682,  -20.0403824
   7954,  -18.7129059,   22.7264957
   7955,  -18.8994942,   22.0962238
   7956,   17.7853336,  -17.8406658
   7957,  -20.0876217,  -17.1550083
   7958,  -20.3165932,  -16.5839462
   7959,  -16.6776886,   19.4632626
   7960,   19.6419525,  -18.7122898
   7961,   14.2683325,  -20.7888966
   7962,  -20.2948952,   19.7589664
   7963,  -19.1198673,  -16.9140053
   7964,    17.644371,  -18.5182877
   7965,   18.9766178,  -18.9359264
   7966,  -20.9783993,   12.0091772
   7967,  -20.7633476,   11.3988476
   7968,   20.2989521,  -15.7959442
   7969,  -18.4080334,   15.3646679
   7970,  -19.8170109,   14.9654083
   7971,  -17.5283699,   19.0134907
   7972,  -22.7848721,   15.1463337
   7973,  -21.2532883,   13.1595831
   7974,   18.3684998,   -18.492897
   7975,  -16.7158833,   21.7828751
   7976,  -18.1369991,   21.2390232
   7977,   18.8143444,  -18.3141956
   7978,  -17.6101971,   18.5157948
   7979,  -22.6952782,    14.058795
   7980,  -23.2573318,   14.6916103
   7981,   21.4750748,  -15.4326706
   7982,  -19.9833126,   16.9091454
   7983,  -20.7056561,   16.0038261
   7984,  -18.1836872,   19.0538654
   7985,  -20.1295223,   17.7812233
   7986,  -16.2164345,   21.7173347
   7987,  -19.7558212,   18.1559677
   7988,  -18.8953571,   19.1854362
   7989,  -18.7078648,   19.7319221
*Element, type=CPE4R
   1, 2207,   20, 6760,  280
   2,  280, 2780, 2783, 2207
   3,  253, 2779, 2878, 3186
   4, 3186, 4591, 6923, 4598
   5, 5102, 7103, 5657, 5800
   6,  287, 4936, 5276, 5551
   7, 2104, 2015, 1413,  135
   8, 1412,  134, 2103, 1985
   9, 4936, 1985, 2103,  248
  10, 1411,  133, 2102, 1986
  11,  494, 4978, 5330, 5584
  12, 6937, 6936, 5804, 7057
  13, 7195,  476, 5572, 5898
  14,  467, 6443, 7266, 6392
  15, 7197, 6213,  457, 5826
  16,  424, 6586, 6299, 6444
  17, 1163, 6379, 6416, 6461
  18, 6649, 1199, 6526, 1198
  19, 6614, 6548, 1232, 6733
  20, 7055, 5912, 6154, 6338
  21, 5333, 4984, 1337, 5586
  22, 4976, 2017, 2152, 1338
  23, 1461,  179, 2151, 1987
  24, 4930, 1987, 2151, 6764
  25,  179, 1460, 1988, 2151
  26, 1988, 2150, 4902, 1339
  27, 5229, 4902, 1340, 5531
  28, 5927, 6885, 6317, 6926
  29, 1235, 6549, 6619, 6683
  30, 6663, 6599, 1204, 6642
  31, 1169, 6404, 6456, 6393
  32,  431, 5852, 6044, 6845
  33, 5254, 6771,  396, 5901
  34,   11, 3028,  376,   12
  35, 4753, 2784, 2855, 4972
  36, 3384, 2788,  375, 5407
  37, 5049, 4677, 4775, 3240
  38, 2833, 2695,  290, 3110
  39, 2383, 6903, 2443, 2437
  40, 2239, 1744, 1806,  636
  41, 1599, 1588,   74,   75
  42, 1783, 1588, 1599, 1818
  43, 1783, 1818, 1806, 1744
  44, 1609, 1599,   75,   76
  45, 2257,  650, 1884, 1609
  46, 1597, 1607,   78,   79
  47, 1593, 1597,   79,   80
  48, 1650, 1597, 1593, 1654
  49, 1604, 1653, 1654, 1593
  50, 1792, 1834, 2334, 1746
  51, 2470, 2404, 2330, 2472
  52,  703, 2466, 2584, 2642
  53, 3121,  504, 3162, 7425
  54, 3371, 3445, 3709,  535
  55, 7821, 3928, 7722, 3737
  56, 5240, 4796, 5557, 1094
  57, 5805, 1061, 5637, 5983
  58, 6339, 1026, 6278,  991
  59, 7482, 6486, 6343, 6325
  60, 5665,  851, 5835, 6032
  61,  851, 4833, 2123, 1989
  62, 1431,  151, 2122, 1989
  63, 1989, 2122, 6014,  851
  64, 1430, 1429, 2121, 1990
  65, 5667, 5142, 5761,  920
  66, 6311,  955, 6222, 6330
  67, 6465, 6612, 7421, 6545
  68, 6725, 1025, 6661, 6701
  69, 6358, 7803, 6354, 6487
  70, 5518, 5864, 5360, 4928
  71, 5166, 1129, 3947, 7766
  72, 3449, 3287, 3369, 7802
  73,  504, 3287, 3203, 3162
  74, 2947, 4709,  704, 2820
  75, 2668,  690, 2626, 2752
  76, 2665, 2577, 2488, 2630
  77, 1844, 1867, 2259, 1899
  78,  650, 1842, 1857, 2256
  79, 1842, 1607, 1702, 1894
  80,   19,   18,  247, 2518
  81,   18, 1376, 2786,  247
  82,  279, 2786, 1376,   17
  83, 3256, 2857, 2962,  640
  84, 3109, 6788, 4823,  655
  85, 6879, 5126, 3322,  655
  86, 3199, 3045, 3032, 3155
  87, 2928,  691, 3169, 3093
  88, 4709, 3308, 7405,  704
  89, 7614, 5381, 4967, 3521
  90,  705, 3203, 3368, 4967
  91, 7706, 3485, 4662,  706
  92,  501, 3941, 3825, 3881
  93, 4222, 3996, 4114,  708
  94, 4403, 4397,  709, 4422
  95, 4403, 5076,  710, 4397
  96, 5951, 5899, 6046, 7091
  97,  496, 4857, 5179, 5523
  98, 1420,  141, 2111, 1991
  99, 1991, 2111, 4857,  496
 100, 1419,  140, 2110, 1992
 101, 1992, 2110, 4837,  712
 102, 1418, 1417, 2109, 1993
 103, 5024, 4705, 4556,  686
 104, 4495, 4492, 7028,  672
 105, 4485, 4515, 4507, 4497
 106, 4572,  645, 4579, 6979
 107, 4572, 6979, 4585, 4580
 108, 4580,  644, 4559, 4572
 109,  281, 3095, 5363, 2679
 110, 5369, 4711, 4722, 6895
 111, 5482, 5346, 5591, 5161
 112, 4331,  682, 4355, 4758
 113, 4255, 4251,  695, 4242
 114, 4201, 4164, 4221, 7631
 115, 3880, 3941, 4222, 3992
 116, 2963,  311, 3026, 3170
 117, 2788, 2790, 1370,   13
 118,   13, 1369,  375, 2788
 119,  375, 1369, 2784, 4753
 120, 3028, 5901,  396, 3094
 121, 1982,    9, 1983, 5405
 122, 1983,    9,    8, 6759
 123,  431, 5437, 5438, 5852
 124, 6061, 5856, 6212, 1170
 125,  311, 2880, 2795, 2883
 126, 2883, 2795, 1372, 1371
 127, 5923, 6288, 7092,  476
 128, 7037, 5341, 4951, 6967
 129,  491, 3670, 3530, 4806
 130, 3530,  490, 3611, 4806
 131, 6924, 4603, 4607, 4597
 132, 6290,  475, 6288, 5923
 133, 4676,  483, 5255, 5597
 134,  489, 3257, 3281, 3392
 135, 3111,  252, 3187, 3014
 136,  253, 3186, 4598, 3111
 137,  474, 6896, 5373, 5599
 138, 3118,  481, 4849, 5072
 139, 5363, 2878, 2779, 2679
 140,    2, 2882, 2785, 1361
 141, 2207, 2520,    1,   20
 142, 3030, 2787, 3188,  481
 143, 3188, 2785,  488, 3541
 144,  480, 2868, 1362,    3
 145, 2787, 1361, 2785, 3188
 146, 1579, 1535,   21,   22
 147, 1614, 1538, 1535, 1611
 148, 1825, 1877, 1765, 1777
 149, 2694, 2696, 2612, 2623
 150, 3487, 3412, 1068, 3131
 151, 1034, 3505, 3419, 3405
 152, 3852, 7804, 3914,  998
 153, 4122, 4153, 7961, 4121
 154,  894, 3734, 3718, 3661
 155, 3527, 3598, 3661, 3718
 156, 3664, 3599, 3410,  823
 157,  788, 3201, 3315, 3389
 158, 2762, 2592,  752, 2680
 159, 2272, 2344, 1924, 1907
 160, 1381, 1380, 1941, 1907
 161, 2272, 1907, 1941, 2674
 162,  105, 1379, 1908, 1940
 163, 1379,  104, 1923, 1908
 164, 2505, 2321,  714, 2430
 165, 2692,  784, 4997, 2776
 166,  818, 6912, 5338, 5422
 167, 6912, 6037, 5894, 5338
 168,  853, 6502, 6281, 6064
 169, 6143, 6442, 6383,  886
 170, 5654, 5824,  922, 5748
 171, 7188, 6001,  921, 7115
 172, 5289, 5654, 5748, 5511
 173, 7349, 5451, 4848, 4316
 174,  959, 5199, 7795, 5590
 175, 4750, 5087, 4232, 4264
 176, 7921, 4213, 4119, 4163
 177, 3933, 3981, 4077, 4032
 178, 4047,  962, 4032, 4077
 179, 3860,  929, 7656, 3884
 180, 1580, 1579,   22,   23
 181,   23,   24, 1536, 1580
 182,   24,   25, 1537, 1536
 183, 1537, 1539,  527, 1641
 184, 1543, 1539,   26,   27
 185,   27,   28, 1545, 1543
 186, 1549, 1545,   28,   29
 187, 1551, 1549,   29,   30
 188, 1553, 1551,   30,   31
 189, 1619, 1648, 1553, 1557
 190, 1666, 1658, 1705, 6877
 191, 2216, 7141, 2293, 2367
 192, 3238, 3119, 3163, 3298
 193, 3416, 3261, 3345, 3579
 194, 7848, 4141, 7775, 7902
 195, 7638,  903, 5479, 7720
 196,  869, 5111, 5214, 3885
 197, 3666,  836, 3713, 4952
 198,  803, 3948, 7204, 3827
 199, 2677,  768, 2770, 3982
 200, 2515, 2393, 6813, 2597
 201,  232, 1517, 1946, 1961
 202, 1517,  231, 1960, 1946
 203,  231, 1516, 1947, 1960
 204, 1516,  230, 1959, 1947
 205, 2597, 2670, 4973, 6962
 206, 5396, 5116, 7015, 4777
 207, 3983, 4747, 3938,  835
 208, 3850, 3984, 4916,  869
 209, 5457, 4916,  868, 5699
 210, 7542, 5882, 5869, 7465
 211, 3970, 3904, 3785, 3858
 212, 5729, 7922, 1005, 3641
 213, 7782, 3482, 5902, 1004
 214, 2912, 2837, 3101, 2647
 215, 2536, 2533, 1105, 2498
 216, 2231, 7050, 1812, 7140
 217, 1649, 1668, 1678, 1645
 218, 6774, 1716, 1668, 1649
 219, 1648, 1658, 1666,  526
 220, 1557, 1553,   31,   32
 221, 1559, 1557,   32,   33
 222, 1561, 1559,   33,   34
 223, 1625, 1623, 1561, 1565
 224, 1565, 1561,   34,   35
 225, 1575, 1565,   35,   36
 226, 1601, 1701,   37,   38
 227, 1589, 1601,   38,   39
 228, 1585, 1589,   39,   40
 229, 1581, 1585,   40,   41
 230, 1571, 1581,   41,   42
 231,   42,   43, 1605, 1571
 232, 1591, 1605,   43,   44
 233, 1652, 1605, 1591, 1704
 234, 1688, 1748,  582, 1595
 235, 2307,  595, 2336, 2390
 236, 3132, 3227, 2910,  609
 237, 3316, 3258, 3373, 3441
 238, 3821, 7783,  262, 4056
 239, 4311, 4268, 4290, 7818
 240, 4375, 4372,  349, 4356
 241,  357, 4464, 4678, 7376
 242, 5916,  393, 6010, 5751
 243,  416, 6221, 5968, 5759
 244,  451, 5666, 5833, 6012
 245, 6775, 6020, 6204, 5839
 246, 1508, 1507, 2196, 1994
 247, 1994, 2196, 6012, 1190
 248,  222, 1506, 1995, 2195
 249,  417, 4864, 5178, 5493
 250, 5934, 5908, 6169,  394
 251,  357, 5211, 4647, 4464
 252, 5021, 4448, 4463, 5131
 253, 4649,  328, 4328,  329
 254, 7747, 4174,  261, 4159
 255, 3868, 3905, 7820, 4100
 256, 3716, 3588, 3675, 7624
 257, 3159, 3074, 3233, 3241
 258, 2653,  596, 2646, 2700
 259, 2338, 2414, 2265, 1863
 260, 1673, 1736, 1763, 1819
 261, 1571,  569, 1634, 1581
 262, 1575,   36,  544, 1636
 263,  544,   36,   37, 1701
 264,   44,   45, 1595, 1591
 265, 1594, 1603,   46,   47
 266, 1603, 1595,   45,   46
 267, 1594, 1598, 1689, 1651
 268, 1608, 1598,   48,   49
 269, 1610, 1892,   50,   51
 270, 1600, 1610,   51,   52
 271, 1600, 4682, 1896, 1610
 272, 2631, 2254, 2305, 2381
 273,  267, 2543, 2675, 2743
 274, 7466, 3328, 3242, 7332
 275, 3683,  346, 3733,  324
 276, 4330, 4281, 4309,  389
 277, 4324, 4368,  390, 4347
 278,  411, 6452, 6292, 7791
 279, 6374, 6458,  447, 6198
 280, 6641, 6690, 1187, 6636
 281, 6562, 6621, 6483, 7230
 282, 1255, 6225, 5941, 5779
 283, 5232, 4896, 1291, 5529
 284, 4942, 2056, 2201, 1325
 285, 1512,  226, 2200, 1996
 286, 4896, 1996, 2200, 1291
 287, 1511,  225, 2199, 1997
 288, 5499, 5147, 5768, 1255
 289, 6145, 6385, 6386, 7001
 290, 6430, 6371, 6211, 6359
 291, 5984, 5074, 4804, 7793
 292, 4442, 4400, 4995,  360
 293, 4404, 7983, 4261, 4386
 294, 7887, 4090, 7947, 4130
 295, 3753, 3759, 3635, 7553
 296, 3341, 7420, 3278, 7438
 297, 3079, 3090, 3153, 3009
 298, 2660, 7060, 2919, 2735
 299, 1598, 1594,   47,   48
 300, 1587,  620, 4682, 1600
 301, 1782, 1813, 1874, 1823
 302, 1847, 2316, 2234,  268
 303, 2462, 2544, 2745, 7309
 304, 2745,  319, 2819, 2854
 305, 3408, 3406, 3349, 3096
 306, 3475, 7669, 3692, 3548
 307, 4126, 4085, 4064, 3915
 308, 4283, 7564, 1177, 4635
 309, 4430, 4260, 7488, 4424
 310, 4423, 4437, 4406, 4385
 311, 4436, 1277, 4454, 4445
 312, 1312, 4486, 4477, 4740
 313, 1346, 4906, 5221, 5355
 314,  172, 1452, 1998, 2143
 315, 1452,  171, 2142, 1998
 316,  171, 1451, 1999, 2142
 317, 4939, 1999, 2141, 1348
 318, 1279, 4542, 4522, 4505
 319, 4474, 1243, 4460, 1278
 320, 4438, 1211, 4437, 4450
 321, 7337, 4754, 4449, 4465
 322, 4657, 4283, 4635, 7447
 323, 4013, 3955,  404, 4064
 324, 3748, 3797, 3861, 3786
 325, 3486, 3566, 4660, 3450
 326,  343, 3140, 3260, 3344
 327, 2838, 2978, 2897, 2722
 328, 2490, 2563, 2643, 2585
 329, 2315,  268, 2234, 2389
 330, 2254,  621, 1875, 1823
 331, 1698, 1781, 1782, 1742
 332, 1587, 1600,   52,   53
 333, 4682, 1742, 1875, 1896
 334, 1577, 1583,   54,   55
 335, 1573, 1577,   55,   56
 336, 1573, 1632, 1637, 1577
 337, 1642, 1583, 1577, 1637
 338, 6996, 2212, 1771, 6910
 339, 2447, 2627, 2524, 2360
 340, 2905, 7385, 3035, 3021
 341, 7344,  340, 3058, 7452
 342, 3402, 3348, 3559, 7769
 343,  402, 3902, 3865, 3802
 344, 3902,  402, 4060, 4010
 345, 4204, 4137, 4170, 4338
 346, 7520, 4346, 4287, 4315
 347, 7456, 5164, 7362, 4426
 348, 4436, 4446, 1276, 4491
 349, 7223, 4740, 4477, 1277
 350, 1345, 4869, 5182, 5497
 351,  173, 1453, 2000, 2144
 352, 2143, 2000, 1453,  172
 353, 1569, 1573,   56,   57
 354, 1567, 1569,   57,   58
 355, 1563, 1567,   58,   59
 356, 1555, 1563,   59,   60
 357, 1555,  271, 1663, 1563
 358, 1541, 1547,   61,   62
 359, 1612, 1541,   62,   63
 360, 1613, 1612,   63,   64
 361,   64,   65, 1542, 1613
 362, 1657, 1613, 1542, 1700
 363, 1657, 1745, 1712,  272
 364, 2697, 7328, 7329, 2482
 365, 2977, 7239, 3125, 3237
 366, 3589, 3393, 3453, 6942
 367, 4189, 4219, 4241, 7274
 368, 4764, 5167, 4209, 4236
 369, 5827, 6156, 1173, 5359
 370, 6381, 5698, 6157, 7314
 371, 6501, 6572, 1239, 6298
 372, 6539, 1274, 6476, 6296
 373, 1308, 5845, 6120, 6243
 374, 6865, 1342, 5845, 1308
 375, 1457, 1456, 2147, 2001
 376, 2001, 2147, 6024, 1342
 377,  175, 1455, 2002, 2146
 378, 1455,  174, 2145, 2002
 379, 5841, 5670, 6857, 1310
 380, 6186, 6117, 1310, 5697
 381, 6009, 6476, 5976, 1275
 382, 5821, 1208, 7497, 7439
 383, 5622, 5263, 5359, 1173
 384, 5298,  435, 5827, 5359
 385, 4198, 4073, 4155,  400
 386, 4107, 4155, 4073,  401
 387, 3277, 3313, 7451, 3218
 388, 2994, 3115,  339, 7343
 389, 6982, 2214, 1846, 1817
 390, 1541, 1656, 1624, 1547
 391, 1692, 1787, 1767, 1710
 392, 1613, 1657,  272, 1612
 393, 1548, 1542,   65,   66
 394,  273, 1548, 1556, 1703
 395, 1564, 1556,   67,   68
 396,   68,   69, 1568, 1564
 397, 1570, 1568,   69,   70
 398, 1574, 1570,   70,   71
 399,   71,   72, 1578, 1574
 400, 1633, 1638, 1694,  274
 401, 1584, 1578,   72,   73
 402, 1596, 1604,   81,   82
 403, 1592, 1596,   82,   83
 404,   83,   84, 1606, 1592
 405, 1572, 1606,   84,   85
 406, 1582, 1572,   85,   86
 407, 1680, 1572, 1582, 1644
 408, 1586, 1582,   86,   87
 409, 1590, 1586,   87,   88
 410, 1590,   88, 1602, 2242
 411,   89,   90,  509, 1647
 412,   90,   91, 1576,  509
 413, 1566, 1576,   91,   92
 414, 1562, 1566,   92,   93
 415, 1562, 1622, 1626, 1566
 416, 1808, 1728, 1721, 1839
 417, 2481, 2281, 2358, 2436
 418, 2801, 7449, 2886, 2953
 419, 2953, 2802, 2798, 2611
 420, 2817, 2698, 2852, 2898
 421, 3288, 3224, 1067, 2898
 422, 3289, 3224, 3352, 1033
 423, 1560, 1562,   93,   94
 424, 1558, 1560,   94,   95
 425, 1554, 1558,   95,   96
 426, 1552,  529, 1617, 1554
 427, 1552, 1554,   96,   97
 428, 1550, 1552,   97,   98
 429, 1546, 1550,   98,   99
 430, 1544, 1546,   99,  100
 431, 6769, 1544, 1540,  528
 432, 1707, 1667, 1679, 1753
 433, 1616, 1615, 1679, 1667
 434, 1667, 1707, 1797, 1715
 435, 2292, 2298, 1137, 7214
 436, 2298, 2356, 2623, 2415
 437, 1540, 1544,  100,  101
 438, 1535, 1538,  102,   21
 439, 1924, 1938, 1382,  106
 440,  718, 2593, 2506, 4955
 441, 1925,  718, 2273, 1939
 442, 1385,  109, 1943, 1918
 443, 1386,  110, 1926, 1917
 444, 2267, 1916, 1928, 2672
 445, 1929, 2346, 2492, 1915
 446, 5003, 1914, 1930,  723
 447, 5004, 1913, 1931,  724
 448, 1392,  115, 1932, 1912
 449, 1393,  116, 1933, 1911
 450, 2268, 1910, 1935, 2673
 451, 1936, 2348, 2495, 1909
 452, 4996, 1921, 1937,  729
 453, 1945,  730, 2279, 1948
 454, 1945, 1948, 1515,  121
 455,  119, 1396, 1909, 1937
 456,  118, 1395, 1910, 1936
 457,  117, 1393, 1911, 1934
 458,  116, 1392, 1912, 1933
 459,  115, 1391, 1913, 1932
 460,  114, 1390, 1914, 1931
 461,  113, 1389, 1915, 1930
 462,  112, 1388, 1916, 1929
 463,  111, 1386, 1917, 1927
 464,  110, 1385, 1918, 1926
 465, 1925, 1939, 1384,  108
 466,  108, 1383, 1919, 1925
 467, 1922, 1944, 1378,  103
 468, 1944, 2271, 4915, 1923
 469, 6790, 2873,  748, 4897
 470, 2692,  749, 4721,  784
 471, 5128, 6792, 5175, 5422
 472, 5665,  852, 5760, 5141
 473,  103, 1377, 1920, 1922
 474,  156, 2127, 1920, 1436
 475, 2435, 2087, 2126,  748
 476, 4897, 2088, 2125, 6767
 477,  817, 4870, 2124, 2003
 478, 2123, 2003, 1432,  152
 479, 1990, 2121, 6015,  885
 480,  150, 1428, 2004, 2120
 481,  953, 4858, 5181, 5495
 482, 6171, 5932, 6307,  988
 483, 6544, 6462, 6611, 1024
 484, 1059, 6607, 6540, 6487
 485, 1093, 7666, 5360, 5864
 486, 4928, 7695, 7741, 7754
 487, 3572, 3647, 3728, 5000
 488, 2120, 2004, 4825,  919
 489,  149, 1427, 2005, 2119
 490,  986, 4911, 5223, 5525
 491, 6160, 5918, 6305, 1023
 492, 6653, 6459, 6608, 6594
 493, 6576, 1092, 6540, 7494
 494, 7592, 7593, 5464, 5638
 495, 3881, 7676, 3942, 4799
 496,  502, 3728, 3778, 3825
 497, 2119,  953, 4825, 2004
 498,  148, 1426, 2006, 2118
 499, 1021, 4937, 5273, 5541
 500, 6151, 5947, 6334, 1057
 501, 6534, 6498, 7335, 6499
 502, 7424, 6088, 7391, 7392
 503,  501, 3881, 4799, 7601
 504, 2118,  986, 4858, 2005
 505, 1425,  146, 2116, 2007
 506, 1055, 4982, 5329, 5563
 507, 6238, 6105, 6372, 1090
 508, 6360, 6099, 6237, 6414
 509, 5429, 5641, 5201, 5112
 510, 5112,  500, 7531, 4766
 511, 4937, 2007, 2116, 1055
 512, 1424,  145, 2115, 2008
 513, 1088, 4977, 5328, 5582
 514, 6153, 5914, 6308, 1124
 515,  540, 7135, 5641, 5429
 516, 5641, 5811,  499, 5201
 517, 4982, 2008, 2115, 1088
 518, 1423,  144, 2114, 2009
 519, 1122, 4931, 5275, 5567
 520,  541, 6951, 6310, 7073
 521,  498, 6074, 6310, 7016
 522, 4977, 2009, 2114, 1122
 523, 1422,  143, 2113, 2010
 524,  543, 4903, 5228, 5544
 525, 4903,  496, 5523, 5228
 526, 4931, 2010, 2113, 6765
 527, 2112, 2011, 1421,  142
 528, 2011, 2112, 4903,  543
 529, 1993, 2109, 5555,  700
 530,  139, 1416, 2012, 2108
 531, 6830, 6829,  673, 6887
 532, 4651,  660, 6916, 4529
 533, 4624, 4610, 4634, 7107
 534, 6979, 4579, 7070,  283
 535, 2108, 2012, 5210,  687
 536,  138, 1415, 2013, 2107
 537, 5200, 6784, 5189, 5552
 538, 4811, 5334,  647, 4640
 539, 4624,  284, 4608, 4610
 540, 2107,  674, 5210, 2012
 541,  137, 1414, 2014, 2106
 542,  649, 4905, 5234, 5532
 543, 5583, 4813, 5334, 6930
 544, 2106,  662, 4791, 2013
 545,  136, 1413, 2015, 2105
 546, 5234, 4905,  287, 5551
 547, 4983, 1986, 2102,  494
 548, 1410,  132, 2101, 2016
 549,  487, 4932, 5277, 5569
 550, 6277, 6089, 5929, 6324
 551, 6367, 6478, 7198, 6356
 552, 6639, 6451,  459, 6622
 553, 6513,  423, 6402, 6406
 554, 6447, 6525, 1162, 6400
 555, 6715, 6685, 6678, 1197
 556, 7291, 6615, 6466, 6550
 557, 5928, 6165, 6316, 6178
 558, 5278, 4938, 1336, 5570
 559, 4984, 2019, 2153, 1337
 560, 2152, 2017, 1462,  180
 561, 4978, 2016, 2101,  487
 562, 1409,  131, 2100, 2018
 563,  479, 4908, 5226, 5545
 564, 6318,  469, 6324, 7010
 565,  460, 6556, 6503, 6492
 566, 6538, 6592,  422, 7353
 567, 1161, 6634, 6664, 6660
 568, 6719, 6672, 6715, 1197
 569, 6565, 6470, 6626, 1229
 570, 5227, 4912, 1335, 5547
 571, 4938, 2021, 2154, 1336
 572, 2153, 2019, 1463,  181
 573, 4932, 2018, 2100, 6763
 574, 1408,  130, 2099, 2020
 575,  471, 4859, 5184, 5527
 576, 6261, 6333, 6109, 6828
 577, 6511, 6647, 6563,  420
 578, 6722, 1159, 6699, 6739
 579, 7311, 6721, 6698, 6610
 580, 6645, 6510, 6565, 1229
 581, 6263, 5962, 6351, 1263
 582, 5185, 4872, 1334, 5530
 583, 2155, 2023, 1465,  183
 584, 2154, 2021, 1464,  182
 585, 2020, 2099, 4908,  479
 586, 1407,  129, 2098, 2022
 587, 5148, 5771, 5501, 6782
 588, 6644, 6699, 6529, 6904
 589, 6742, 6684, 6708, 1195
 590, 6244, 6121, 1298, 6263
 591, 6858, 5674, 5149, 5772
 592, 2156, 2025, 1466,  184
 593,  184, 1465, 2023, 2156
 594, 2022, 2098, 4859,  471
 595, 1406,  128, 2097, 2024
 596, 5844,  419, 5673,  418
 597, 6336, 6122, 6246, 6412
 598, 6560, 6630, 6468, 1225
 599, 6628, 6568, 1227, 6686
 600, 6342, 6123, 1297, 6411
 601, 5846, 5674, 6858, 1298
 602, 2157, 2027, 1467,  185
 603,  185, 1466, 2025, 2157
 604, 2024, 2097, 4826,  462
 605, 1405, 1404, 2096, 2026
 606, 5849, 5676, 6835, 1192
 607, 6264, 6246, 1192, 6863
 608, 6450, 6508, 6560, 1225
 609, 6901, 6337, 6231, 6265
 610, 5850, 1296, 5677, 1330
 611, 2029, 2159, 6025, 1331
 612,  186, 1467, 2027, 2158
 613, 2026, 2096, 6022,  418
 614,  127, 1403, 2028, 2095
 615, 6863, 6834, 5780, 5961
 616, 6365, 6230, 5939, 6183
 617, 5677, 1296, 5781, 5153
 618, 5850, 1330, 6028, 6248
 619, 1469, 1468, 2159, 2029
 620, 2095, 2028, 6027, 1156
 621,  126, 1402, 2030, 2094
 622, 1224, 4860, 5191, 5507
 623, 6889, 7044, 6183, 5939
 624, 5192, 4873, 1329, 5509
 625, 1330, 4835, 2161, 2031
 626, 2160, 2031, 1470,  187
 627, 2094, 1191, 6027, 2028
 628,  125, 1401, 2032, 2093
 629, 1257, 4899, 5236, 5534
 630, 5237, 4898, 6766, 5535
 631, 1329, 4873, 2162, 2033
 632, 2161, 2033, 1471,  188
 633, 2093, 1224, 4827, 2030
 634,  124, 1400, 2034, 2092
 635, 1292, 4944, 5281, 5553
 636, 4898, 2037, 2163, 6766
 637, 2162, 2035, 1472,  189
 638, 2092, 1257, 4860, 2032
 639, 1399,  122, 2090, 2036
 640, 4943, 2039, 2164, 1327
 641, 2163, 2037, 1473,  190
 642, 4944, 2036, 2090, 1326
 643, 1475, 2038, 1398,  157
 644, 2164, 2039, 1474,  191
 645,  192, 2165, 2038, 1475
 646,  178, 1459, 2040, 2150
 647, 2040, 2149, 4861, 1340
 648, 5504, 4861, 1341, 6780
 649, 6321, 5940, 6229, 1272
 650, 6618, 1236, 6551, 6491
 651, 6662, 6730, 7124, 6605
 652, 6429, 6357, 1170, 6921
 653, 6061, 5926,  432, 5856
 654, 5302, 5261,  377, 6798
 655, 6800, 5026, 3650, 3347
 656, 3304, 3081, 3173, 6802
 657, 3001, 2937, 2823, 6860
 658, 2609, 2616, 2751, 2359
 659, 1904, 1816, 2249, 2311
 660, 1816, 1904, 1740, 1774
 661,  177, 1458, 2041, 2149
 662, 1342, 4840, 2148, 2001
 663, 6865, 5773, 6780, 5150
 664, 6335, 6262, 1273, 6481
 665, 6564, 1238, 6637, 6624
 666, 6533, 6671, 6637, 1238
 667, 1172, 6408, 6303, 5957
 668, 6355, 6280,  433, 6270
 669, 5964, 5712,  398, 5915
 670, 4767, 4278, 4306, 6900
 671, 3536, 3476, 3483, 3651
 672,  336, 3226, 3128, 3038
 673, 2568, 2615, 2990, 2639
 674, 1760, 1850, 1811, 1709
 675, 1703, 1628, 1760, 1709
 676,  174, 1454, 2042, 2145
 677, 2144, 2042, 1454,  173
 678, 6094, 6857, 5819, 5644
 679, 5697, 6094, 5678, 1275
 680, 5539, 5891, 5306, 7165
 681, 7412, 5701, 5426, 4845
 682, 4363, 1174, 4845, 5196
 683, 4364, 4338, 4170, 7674
 684, 7524, 3973, 3921, 3848
 685, 3481,  381, 3568, 3640
 686,  370, 7451, 3313, 3259
 687, 2982, 2917,  339, 3115
 688, 7257, 2629, 2729, 2534
 689, 1869, 2357, 2238, 1798
 690, 1627, 1663, 1730, 1670
 691, 1710, 1663,  271, 1692
 692,  170, 1450, 2043, 2141
 693, 4985, 2043, 2140, 1349
 694, 4541, 6851, 4959, 6917
 695, 4505, 4522, 4508, 4513
 696, 4483, 4490, 4918, 4500
 697, 4489, 1212, 4471, 4483
 698, 5472, 7555, 5627, 7651
 699,  440, 5197, 5387, 7604
 700, 4161, 7836, 4196, 4217
 701, 3786, 3916,  384, 3748
 702,  384, 3796, 3749, 3748
 703,  343, 3413, 3382, 3212
 704, 3070, 3145, 3217,  322
 705, 3040, 2936, 2754, 2897
 706, 2744, 2543, 2585,  298
 707,  169, 1449, 2044, 2140
 708, 4979, 2044, 2139, 1350
 709, 1350, 5559, 5325, 4979
 710, 4560, 4971, 4552, 7180
 711, 4918, 4524, 1245, 4500
 712, 4502, 5028, 4500, 1245
 713, 5589, 5385, 4714, 5233
 714, 5262, 4815, 7816,  441
 715, 4152, 7930, 4123, 4194
 716, 3995, 4067, 4131, 4028
 717, 3963,  365, 7749, 4776
 718, 3629, 3694, 3488,  344
 719, 3146, 7332, 7212, 2995
 720,  168, 1448, 2045, 2139
 721, 4933, 2045, 2138, 1351
 722, 5269, 4933, 1351, 5537
 723, 5440, 5105, 7219, 5069
 724, 4752, 4551, 4562, 5979
 725, 4888, 4534, 4563, 1215
 726, 4888, 1215, 5202, 5448
 727, 4369,  442, 5015, 7808
 728,  408, 4184, 4225, 7986
 729, 4055,  386, 4131, 4093
 730, 3847, 3975, 3927, 7888
 731, 3696, 3755, 3626,  345
 732, 7729, 3683,  324, 3753
 733,  167, 1447, 2046, 2138
 734, 4909, 2046, 2137, 6762
 735, 5219, 4909, 6762, 5520
 736, 5743, 5935, 5937, 7121
 737, 5130, 5679, 5312, 1247
 738, 4563, 1247, 5016, 1215
 739, 7673, 1181, 5202, 5735
 740, 4326,  443, 4348, 4370
 741, 4253, 4262, 7976, 4240
 742, 4216, 7984, 7971, 4193
 743, 4414,  362, 4387, 4399
 744,  346, 3755, 3784, 3854
 745,  166, 1446, 2047, 2137
 746, 2047, 2136, 4862, 1352
 747, 5176, 4862, 1353, 5492
 748, 6210, 7105, 6282, 6065
 749, 6065, 5986, 5754, 1283
 750, 1216, 7490, 5830, 7580
 751, 6340, 6757, 6271, 5993
 752, 6754,  444, 4390, 1182
 753, 4892, 4822, 5368, 6728
 754, 4259, 4229, 4282, 7962
 755, 4259, 4281,  388, 7988
 756,  165, 1445, 2048, 2136
 757, 2048, 2135, 4828, 1353
 758, 5664, 6875, 5758, 5139
 759, 6935, 6327, 6112, 6256
 760, 1249, 7282, 6347, 7267
 761, 6421, 6472, 6293, 7267
 762, 6751, 6753, 6407, 6632
 763, 6714, 6749, 6732, 7677
 764, 6667, 6601, 4388,  410
 765,  389, 4309, 4324, 4347
 766,  164, 1444, 2049, 2135
 767, 2049, 2134, 6011, 1354
 768, 5832, 6034, 5664, 1354
 769, 1286, 6432, 6382, 6384
 770, 6505, 6432, 1286, 6597
 771, 6580, 6633, 6681, 7479
 772, 6452, 6493, 6322, 6292
 773,  163, 1442, 2050, 2133
 774, 1442,  162, 2132, 2050
 775, 5668, 1322, 6018, 5838
 776, 6384, 6387, 6440, 1286
 777, 6440, 6669, 6597, 1286
 778, 6740, 1219, 6743, 6729
 779, 6706, 6744, 1185, 6655
 780, 6374, 7833, 6584, 6458
 781,  162, 1441, 2051, 2132
 782, 1441,  161, 2131, 2051
 783, 5767, 1322, 5668, 5145
 784, 6259, 6868, 6349, 1287
 785, 6554, 1253, 6620, 6471
 786, 6740, 6691, 6713, 1219
 787, 6727, 6673, 7598, 7599
 788,  161, 1440, 2052, 2131
 789, 1440,  160, 2130, 2052
 790, 5186, 4874, 1358, 5528
 791, 5942, 6180, 6959, 6366
 792, 6555, 6489, 1254, 6483
 793, 6489, 6555, 6509, 6453
 794,  160, 1439, 2053, 2130
 795, 1439,  159, 2129, 2053
 796, 5231, 4900, 1359, 5549
 797, 6180, 5960, 6128, 6959
 798, 5959, 6179, 6128, 5960
 799,  159, 1438, 2054, 2129
 800, 4945, 2054, 2128, 1360
 801, 1359, 4945, 5280, 5549
 802, 1325, 4896, 5232, 5550
 803,  158, 1437, 2055, 2128
 804, 1514,  228, 2202, 2055
 805, 2201, 2056, 1513,  227
 806, 4863, 1997, 2199, 1256
 807, 1510,  224, 2198, 2057
 808, 5671, 5839, 6031, 1222
 809, 6389, 6141, 6257,  449
 810,  413, 6069, 5692, 5757
 811, 5208, 4417, 7794,  391
 812, 7945, 4393, 4356, 4320
 813, 7979, 4127, 4214, 4322
 814, 3972, 3859, 4023, 4088
 815, 7415, 7475, 3069, 2973
 816, 2572, 2767, 7161, 2741
 817,  594, 1836, 1795, 1747
 818, 4829, 2057, 2198, 1223
 819, 2197, 2058, 1509,  223
 820, 5666,  450, 6013, 5833
 821, 6344, 5968, 6221,  415
 822,  414, 6441, 6146, 6045
 823, 4678, 5592, 5379, 7376
 824, 4356, 4393, 4405, 4375
 825, 4268, 4235,  327, 4289
 826, 7966, 7967, 7920, 7919
 827,  263, 3821, 3765, 3510
 828, 3510, 3373, 3586,  263
 829, 3227, 3440, 3271,  610
 830, 1747, 1770, 1748, 1688
 831, 1804, 1795, 1881,  595
 832, 2195, 1995, 4830,  451
 833,  221, 1505, 2059, 2194
 834,  395, 4913, 5220, 5522
 835, 6147, 5920, 5971,  356
 836, 5870,  350, 5487, 6401
 837,  329, 5131, 5445, 5100
 838, 4337, 4291, 4353, 4966
 839, 4113,  261, 4174, 4266
 840, 3716, 3868, 3752,  612
 841, 3375, 3588, 3516, 3448
 842,  597, 2996, 2903, 2849
 843, 2652, 2717, 2559, 2446
 844, 2474, 2409, 2422, 2337
 845, 1824, 2657, 1815, 1717
 846, 1673,  557, 1643, 1634
 847, 2194,  417, 4830, 1995
 848,  220, 1504, 2060, 2193
 849,  354, 4940, 5270, 5538
 850, 6150, 5949, 6137,  351
 851, 5897, 6042, 7453, 6035
 852,  259, 4409, 4396, 4381
 853,  259, 4352, 4313, 4337
 854,  613, 3932, 4072, 5406
 855, 3614, 3492, 3516,  612
 856, 3232, 3161, 3080, 3142
 857, 2641,  571, 2559, 2717
 858, 2419, 2734, 2650, 2721
 859, 2463, 2517, 2530, 2635
 860, 1803,  524, 1790, 1861
 861, 2366, 2302, 2387, 2496
 862, 1727, 1723, 1756, 1865
 863,  525, 1684, 1727, 6804
 864, 2193,  395, 4864, 2059
 865, 1503,  218, 2191, 2061
 866,  353, 4986, 5322, 5560
 867, 6331,  331, 6236, 6107
 868, 5428,  307, 5897,  308
 869, 4439, 4475, 4451,  630
 870,  613, 5406, 3788, 3751
 871, 3724, 3583, 3743, 3872
 872, 4824, 3376, 3243,  585
 873,  572, 3002, 2925, 2807
 874, 7302, 7301, 2894,  548
 875, 2419, 2564,  546, 2327
 876,  523, 2463, 2364, 2306
 877, 2392, 2291, 2361, 2489
 878, 2618, 2711, 7196, 1107
 879, 2496, 2387, 2570, 2618
 880, 4940, 2061, 2191,  353
 881, 1502,  217, 2190, 2062
 882,  333, 4980, 5323, 5578
 883,  308, 5994, 5642, 5428
 884, 4564, 4543,  631, 4408
 885,  630, 4425, 4428, 4439
 886,  615, 4479, 4475, 4439
 887, 3792,  600, 3871, 7637
 888, 3517, 3547, 3491, 3451
 889, 3225, 7345, 3372, 3291
 890, 3024, 3037,  560, 2916
 891, 2699, 2651, 2828, 2933
 892, 2803,  522, 2733, 2831
 893, 2461, 1143, 6976, 2552
 894, 2907, 2805, 1108, 2986
 895, 3031, 3057, 7476, 3091
 896, 2749, 2711, 2618, 2570
 897, 4986, 2062, 2190,  333
 898, 1501,  216, 2189, 2063
 899,  310, 4934, 5268, 5558
 900, 5075,  257, 5813, 6096
 901, 4511,  631, 4543, 7039
 902, 4452, 4457,  615, 7320
 903,  601, 4498, 4493, 4881
 904, 5006,  587, 5309, 7744
 905, 4885, 4779, 5235, 4855
 906, 3291, 3390,  561, 3225
 907, 3054,  548, 3068, 7503
 908,  521, 2811, 2890, 2989
 909, 1144, 3439, 3214, 2892
 910, 3508, 3362, 3205, 3292
 911, 3048, 3143, 1075, 2987
 912, 3585, 3717, 3622, 3644
 913, 3644, 3622, 4794, 3122
 914, 4980, 2063, 2189,  310
 915, 1500,  215, 2188, 2064
 916,  255, 4904, 5218, 6842
 917, 4554, 4538,  617, 7068
 918, 7384,  616, 4494, 4482
 919,  602, 4510, 4503, 4493
 920, 4573, 7606, 4545, 4567
 921,  576, 4841, 5081, 7660
 922,  562, 3874, 3815, 3429
 923, 3592, 3519, 3335, 3290
 924,  520, 3192, 3222, 3124
 925, 4917, 3303, 3377, 7474
 926, 1110, 3228, 3365, 3301
 927, 4780, 3363, 1076, 3149
 928, 1042, 3364, 3438, 3502
 929, 4846, 5195, 7829, 3735
 930, 3717, 3693, 3645, 3622
 931, 4934, 2064, 2188,  255
 932, 1499,  214, 2187, 2065
 933, 5177, 5171, 5134, 5764
 934,  617, 4538, 4553, 4519
 935, 4583, 4878, 4581, 4590
 936,  589, 4520, 4532, 4547
 937,  576, 4573, 4567, 4569
 938, 4112, 4074, 3959, 5733
 939, 3480, 7732, 3569, 3845
 940, 3378, 1146, 3456, 3524
 941, 7549, 3477, 1111, 3415
 942, 3426, 3600, 1077, 3508
 943, 3906, 3878, 3957, 4017
 944, 1007, 3673, 3839, 3837
 945, 7842, 5433, 3699, 7829
 946, 3699, 7758, 3735, 7829
 947, 4904, 2065, 2187, 6778
 948, 1498,  213, 2186, 2066
 949, 6884, 4633, 4629, 4626
 950,  604, 4519, 4568, 4577
 951,  590, 4576, 4570, 4532
 952,  577, 4582, 4578, 4569
 953, 7543, 4595, 6090, 5803
 954, 3959, 4025,  551, 4101
 955,  518, 3619, 3703, 3768
 956, 3480, 3814, 1147, 3411
 957, 1112, 3653, 3594, 3477
 958, 7639, 5293, 3712, 3763
 959, 1044, 4053, 4102, 5058
 960, 3917, 1008, 7810, 3967
 961, 7798, 7815, 3846,  974
 962, 5815,  904, 7465, 5869
 963, 5455,  939, 4670, 5195
 964, 2066, 2186, 4865,  634
 965, 1497,  212, 2185, 2067
 966, 4584, 4587, 4594,  591
 967, 4609, 4622, 4852, 4604
 968,  564, 4589, 4593, 4600
 969, 7690, 4178, 4111, 4074
 970, 4003, 4002, 4050, 4125
 971, 7844, 3951, 1148, 3845
 972, 3829, 1113, 3879, 3939
 973, 3836, 3877, 1079, 7691
 974, 4212, 1010, 4244, 4273
 975, 4175, 1009, 4103, 7577
 976,  940, 7785, 5660, 7728
 977, 3721, 4745, 3658,  871
 978, 5162, 5815, 5656, 5288
 979, 2067, 2185, 4838,  619
 980, 1496, 1495, 2184, 2068
 981, 4734, 7029, 4618, 4699
 982,  552, 7354, 5009, 5305
 983, 4224, 4203, 7668, 4125
 984, 4003, 4066, 1149, 7874
 985, 7903, 5291, 1114, 3736
 986, 4701, 1080, 7786, 5352
 987, 7853, 4351, 5023, 4333
 988, 1010, 4212, 4181, 7672
 989, 5881, 6249, 4704, 5903
 990, 5349,  941, 5740, 7683
 991, 3720, 3658,  905, 4965
 992,  871, 3467, 3603, 3721
 993, 2068, 2184, 4631,  605
 994,  211, 1494, 2069, 2183
 995, 6882, 5078, 4623,  580
 996, 6953,  566, 4734, 4699
 997,  553, 5515, 5299, 5009
 998, 4296, 4269, 1151, 4781
 999, 4185, 4176, 1150, 4167
1000, 5423, 1116, 5580, 5430
1001, 1081, 5321, 5489, 5629
1002, 1013, 7951, 4391, 5077
1003, 1011, 4302, 4292, 4273
1004, 5065,  975, 4181, 4889
1005, 5787, 6084, 5936, 5632
1006, 5463, 4921,  906, 7582
1007,  837, 3396, 3321, 3172
1008, 3252,  837, 3172, 7065
1009, 3666, 3534, 3604,  836
1010, 2183, 2069, 4621,  593
1011,  210, 1493, 2070, 2182
1012,  568, 4866, 5180, 6833
1013, 7133, 6273, 6079, 5933
1014, 5118, 7492, 7402, 5630
1015, 4231, 4226, 1151, 4269
1016, 4698, 1116, 4252, 1117
1017, 6092, 5910, 5707, 5749
1018, 5616, 1048, 5774, 7881
1019, 1012, 7951, 4343, 7939
1020,  976, 4359, 4730, 5378
1021, 5632,  943, 5713, 7768
1022, 5345, 5064, 4883,  874
1023,  872, 5125, 7518, 5213
1024, 2677,  803, 3320, 2771
1025,  804, 7065, 3172, 3065
1026, 2182,  581, 4621, 2069
1027,  209, 1492, 2071, 2181
1028,  556, 4907, 5222, 5524
1029, 5919, 6159,  512, 6076
1030, 1152, 5348, 5036, 4295
1031, 1117, 7579, 5090, 4698
1032, 7680, 5876, 6196, 6043
1033, 6217, 6353, 7800, 1049
1034, 7823, 6006, 7861, 1013
1035, 4808, 5059,  977, 4343
1036, 5295,  944, 7784, 5663
1037,  909, 7486, 4744, 7578
1038, 4695, 5034, 3531, 3605
1039, 2954,  806, 4726, 3107
1040, 7004, 4887,  805, 2773
1041, 2431, 2508, 2319, 6810
1042, 2581,  768, 2677, 2771
1043, 2181,  568, 4630, 2070
1044,  208, 1491, 2072, 2180
1045,  511, 4941, 5272, 5540
1046, 7148, 5822, 5653, 5348
1047, 5282, 5514, 1118, 5036
1048, 5710, 1083, 5556, 5972
1049, 6196, 6376, 1050, 6043
1050,  978, 6269, 6067, 5745
1051, 5517, 5343,  945, 7713
1052,  909, 3988, 3943, 7486
1053, 3772, 4685, 4040,  875
1054,  769, 2914, 6893, 3015
1055, 1961, 1949, 1518,  232
1056, 2180,  556, 4866, 2071
1057, 1490,  206, 2178, 2073
1058, 1155, 4987, 5327, 5562
1059, 7132, 1119, 5948, 6003
1060, 7417, 6167, 7428, 6394
1061, 6182, 6515, 6377, 5987
1062, 6475, 6530, 7718,  979
1063, 5970, 6163,  947, 7633
1064, 3988,  910, 5467, 3857
1065, 3668,  841, 3700, 7271
1066,  840, 3318, 3179, 7367
1067, 2678, 3106,  806, 2872
1068, 2509, 2318, 2596,  770
1069,  735, 1950, 1963, 4782
1070,  233, 1518, 1949, 1962
1071, 4941, 2073, 2178, 1155
1072, 1489,  205, 2177, 2074
1073, 1121, 4981, 5326, 5581
1074, 6306, 6152, 7024, 5917
1075, 6531, 6638, 6495, 1018
1076,  912, 7650, 7698, 5646
1077,  877, 5473, 4926, 7399
1078, 3601, 7108, 3668, 5010
1079, 3317, 3395, 3209, 7162
1080, 2514, 2432,  771, 2772
1081,  735, 2277, 1964, 1950
1082, 1520, 1519, 1963, 1950
1083, 4987, 2074, 2177, 1121
1084, 1488,  204, 2176, 2075
1085, 1087, 4935, 5274, 5564
1086, 6161, 5931, 6309, 1052
1087, 6345, 6268,  982, 6693
1088,  982, 6038, 7186, 6415
1089, 5198, 5816, 5648, 5317
1090,  912, 5646, 5351, 5217
1091, 4926,  878, 7350, 7399
1092, 3833, 3776, 3714,  809
1093, 3535,  808, 3553, 4802
1094, 5043, 5121, 5083, 5466
1095, 2353, 1965, 1951,  736
1096, 1964, 1951, 1521,  234
1097, 4981, 2075, 2176, 1087
1098, 1487,  203, 2175, 2076
1099, 1054, 4910, 5224, 5543
1100, 5945, 6314, 6172, 7018
1101, 6007,  982, 6268, 6191
1102, 5354, 4844, 5561, 7269
1103, 7516, 3726, 4720,  914
1104, 4992, 7423, 3669, 7369
1105, 3935, 3990, 4733, 3991
1106, 4083, 4043, 3980, 5502
1107, 4948, 1953, 1966,  737
1108, 1965, 1952, 1522,  235
1109, 4935, 2076, 2175, 6777
1110, 1486,  202, 2174, 2077
1111, 1020, 4867, 5183, 5526
1112, 6091,  950, 6219,  951
1113, 5686, 5837, 5620, 5062
1114, 7516,  914, 3725, 7365
1115, 3608, 7530, 3469, 3538
1116,  844, 3832, 3773, 3875
1117, 5041,  811, 5358, 6970
1118,  774, 3893, 3901, 3980
1119, 4991, 1954, 1967,  738
1120, 1966, 1953, 1523,  236
1121, 2077, 2174, 4910, 1054
1122, 1485,  201, 2173, 2078
1123, 5146, 5770, 5500, 6831
1124, 5635,  916, 5809, 6083
1125, 7225,  881, 7206, 4643
1126, 3327,  846, 3385, 4890
1127,  846, 3174, 3255, 3607
1128, 3978, 2681, 2774, 4014
1129, 4990, 1955, 1968,  739
1130, 1967, 1954, 1524,  237
1131, 2078, 2173, 4867, 1020
1132, 1484,  200, 2172, 2079
1133, 5843,  951, 5672,  952
1134, 5136,  916, 5635, 5645
1135, 7200,  881, 4639, 4642
1136, 3174,  846, 3327, 3254
1137, 7224, 2775, 2579, 2681
1138, 2513,  777, 2433, 2395
1139, 1969, 1956, 1526,  239
1140, 1968, 1955, 1525,  238
1141, 2079, 2172, 4831,  985
1142, 1483, 1482, 2171, 2080
1143, 6033, 5847, 5756,  917
1144, 4963,  882, 5318, 5585
1145, 3398,  813, 3460,  814
1146, 2874, 2775, 3018, 2924
1147, 2510, 2317, 2433,  777
1148, 1970, 1957, 1527,  240
1149,  240, 1526, 1956, 1970
1150, 2080, 2171, 6023,  952
1151,  199, 1481, 2081, 2170
1152, 5675, 5151, 5831,  883
1153, 5044, 7100, 5294, 7017
1154, 3398, 3324, 3246, 3127
1155, 3019,  778, 7205, 2874
1156, 1971, 1958, 1528,  241
1157,  241, 1527, 1957, 1971
1158, 2170, 2081, 6026,  918
1159,  198, 1480, 2082, 2169
1160,  850, 4868, 5190, 5505
1161, 3540,  780, 3612, 4703
1162,  780, 3399, 3246, 3324
1163, 6761, 1972, 1977, 5225
1164,  242, 1528, 1958, 1976
1165, 2169,  884, 6026, 2081
1166,  197, 1479, 2083, 2168
1167,  816, 4901, 5230, 5533
1168,  780, 3540, 3470, 3399
1169, 1978,  744, 3464, 1973
1170, 1530, 1529, 1977, 1972
1171, 2168,  850, 4832, 2082
1172,  196, 1478, 2084, 2167
1173, 4884,  781, 5307, 5257
1174, 4875, 4893,  745, 3470
1175, 1978, 1973, 1531,  243
1176, 2167,  816, 4868, 2083
1177, 4949, 1975, 1980,  746
1178, 1979, 1974, 1532,  244
1179, 6758, 2086,  194, 1476
1180, 1980, 1975, 1533,  245
1181, 1981, 6758, 1534,  246
1182,   20,   19, 2518, 6760
1183, 5276, 4936,  248, 5568
1184,  248, 4983, 5331, 5568
1185, 5859, 7096, 5598, 5866
1186,  484, 5038, 5057, 5101
1187,  285, 7104, 7103, 7158
1188,  250, 5604, 5390, 3894
1189, 3610, 7037, 6967, 3421
1190,  284, 4612, 5039, 4970
1191, 7082,  251, 4970, 5039
1192, 4934,  255, 6842, 5268
1193, 5642, 5813,  257, 7125
1194,  307, 5428, 7278, 7304
1195, 4291, 4337, 4313, 4234
1196, 4266, 4174, 7643,  260
1197, 4182, 4159, 4154,  262
1198, 4138, 4154, 4159,  261
1199, 5067, 3873,  263, 3586
1200, 7703, 7750, 7704, 3667
1201, 3139, 3006, 3073, 3151
1202, 2889,  299, 3073, 3006
1203, 2808, 6981, 2736, 2908
1204, 2736, 2815, 7059, 2908
1205, 2389, 2234, 2391,  297
1206, 1832, 1871, 2316, 1847
1207, 1900, 1862, 6909, 1733
1208,  636, 2219, 2410, 6946
1209, 1793, 1784, 2412, 2443
1210, 2380,  651, 2397, 2444
1211, 1895, 2219,  636, 1806
1212, 3034, 2487, 2413, 6946
1213, 2624, 2553, 2667,  290
1214, 2880,  311, 2963, 3027
1215, 2963, 3170, 3110, 3027
1216, 3166, 2833,  312, 3043
1217, 2488, 7062,  664, 2576
1218, 1754,  663, 1899, 2313
1219, 2794, 2791,   16, 1374
1220,   17, 1375, 2789,  279
1221, 2791, 2789, 1375,   16
1222, 4842, 4707, 2791, 2794
1223, 5639,  640, 5238, 6789
1224, 4812, 5238, 4654,  279
1225,  640, 2962, 4654, 5238
1226, 2786, 2962, 2857,  247
1227, 2582, 2518,  247, 2875
1228, 2690,  280, 2582, 2781
1229, 2690, 2876, 2780,  280
1230, 2518, 2582,  280, 6760
1231, 2846, 4727, 2701,  276
1232, 2795, 2880, 3033, 2796
1233, 2553,  275, 2571, 2667
1234, 2221, 1846, 2295, 2365
1235, 7290, 7094,  292, 7189
1236,  296, 2280, 2331, 2360
1237, 2563, 2664, 2722, 2643
1238, 2462, 2637, 2456, 2386
1239, 7664, 3570, 3637, 3484
1240, 7553, 3635, 3580, 3729
1241, 3635, 3702,  301, 3580
1242,  302, 3972, 3923, 3926
1243,  327, 4235, 4206, 7929
1244, 4914, 4206, 4235, 4267
1245, 4379, 4353, 7787, 7719
1246, 7533, 5100, 5445, 5883
1247, 6042, 5897,  307, 5883
1248, 6131,  308, 6331, 6107
1249, 5323, 4980,  310, 5558
1250,  289, 2724, 2748, 2701
1251, 2676, 2900, 3011, 2586
1252, 4770, 2632, 6966, 5115
1253, 2661, 2732, 4924,  653
1254, 5402, 5639, 5353,  654
1255, 2751, 2616, 2834, 2932
1256, 2375, 2448, 2542, 2455
1257, 2877, 2941, 2814, 7394
1258, 2842,  316, 7328, 2697
1259, 2355, 2226,  294, 2221
1260, 2905, 2719, 2904, 7385
1261, 2838,  320, 2895, 7348
1262, 7419, 3096, 3062, 2984
1263, 2995, 7173, 2936, 3070
1264, 4787, 5108, 4650,  347
1265, 5108, 4787, 4128, 3733
1266, 7887, 4044, 4048, 7886
1267, 4142, 7966,  326, 7929
1268, 4372, 4350, 4299, 4312
1269, 4299, 4350, 4328,  328
1270, 4448, 4647, 5172, 4463
1271, 5870, 6068,  330, 5424
1272,  332, 6236, 5949, 5715
1273, 5322, 4986,  333, 5578
1274, 2790,  334, 4677, 2792
1275, 3319, 6799, 3381, 4775
1276, 2823, 2937, 2703, 7006
1277, 2990, 2918, 2821, 2639
1278, 7432, 2941, 2877, 2934
1279, 2977, 3086,  338, 2906
1280, 2534, 2729, 2656, 2539
1281, 7534, 3058, 3135, 3216
1282, 3003, 3211, 3140, 3042
1283,  321, 3275, 3145, 3040
1284, 3294, 3434, 3358, 3213
1285, 4366, 4344, 4386, 4413
1286, 4386, 4261, 7970, 4413
1287, 4322, 4214, 4310, 7972
1288, 4312, 4300,  349, 4372
1289, 4448, 4441, 4464, 4647
1290, 4464, 4441,  358, 4678
1291, 4647, 5211,  350, 5172
1292, 5270, 4940,  353, 5560
1293, 5220, 4913,  354, 5538
1294, 5908, 5934, 6147,  356
1295, 5751, 5379, 7448,  392
1296,  357, 7376, 5593, 5681
1297, 4415, 4416, 5377,  358
1298,  359, 7879, 4400, 7794
1299,  389, 4347, 4342, 4330
1300, 4646, 4342, 4347, 4433
1301, 3488, 3694,  345, 3573
1302, 3841, 3998, 3780, 7807
1303, 3634, 3566, 7867,  383
1304,  367, 7731, 3567, 3486
1305,  368, 7769, 3475, 3514
1306, 2982, 3115,  370, 3138
1307, 3330, 3277, 3218, 3279
1308, 3453, 3268,  372, 3536
1309, 3226,  373, 3443, 3128
1310, 3173, 3081,  335, 3245
1311, 3384, 5407, 3245, 6799
1312, 2855,  377, 6797, 4972
1313, 3650, 5026, 3581, 3483
1314, 4155, 4158, 7274,  400
1315, 7489, 3313, 3277, 3346
1316, 3916, 3786, 3929,  405
1317, 7807, 3909, 7748, 3841
1318, 3963, 4776, 3965, 3842
1319, 3911, 4004, 3975,  364
1320, 3974, 4133, 7978, 4151
1321, 7730, 4420, 7791, 6292
1322, 4804, 5074,  391, 4410
1323, 6069,  414, 5875, 5692
1324, 7130, 6329, 5952, 7338
1325, 6169,  393, 7338, 5952
1326, 5178, 4864,  395, 5522
1327, 2961,  376, 3028, 3094
1328, 5437, 1982, 5405, 5438
1329,   10,    9, 1982, 5901
1330, 6771, 5389, 4668,  396
1331, 5863, 5243, 5302, 5542
1332, 4278, 4767, 6928, 5053
1333, 4042, 4108, 4805, 4071
1334, 6040, 4209, 5167,  435
1335,  401, 3640, 3568, 4107
1336, 3898, 3902, 3956,  403
1337, 3955, 4013, 4052, 4000
1338, 4085, 5002, 4013, 4064
1339, 3929, 3786, 3861, 3912
1340, 4098, 4067, 3995,  406
1341, 4166, 4093, 7872,  407
1342,  409, 4892, 4282, 4229
1343, 6374, 6198, 7574, 6234
1344, 6234, 7574,  412, 6322
1345,  414, 6069,  413, 6211
1346, 6373, 6146, 6441, 7313
1347, 5666, 5140, 5759,  450
1348,  418, 5673, 5148, 4826
1349, 6261,  419, 6837, 6436
1350,  420, 6563, 6482, 6333
1351, 6591, 6403, 6460, 6639
1352,  458, 6213, 7197, 6214
1353, 5874,  457, 6239, 5995
1354, 5829,  456, 5995, 6586
1355, 5636, 5097, 5315,  466
1356, 4927, 5373, 5566, 5315
1357, 6193, 6379, 6008, 5851
1358, 6400, 6193,  424, 6444
1359, 5829, 5680, 6988, 5089
1360, 3010, 2958, 2684,  464
1361, 3108, 3190,  465, 4716
1362, 3118, 2965, 3030,  481
1363, 2787,  480,    3, 1361
1364, 6461, 1198, 6526, 6398
1365, 6218,  425, 5851, 6008
1366, 4800,  455, 5335, 6922
1367, 2684, 2958, 2832, 2777
1368,    5, 1364, 2519, 2206
1369, 1364, 1363, 2683, 2519
1370, 2868, 2793,    4, 1362
1371, 6570, 6629, 6679, 7209
1372, 6570, 1200, 6650, 6629
1373, 6650, 6437, 6504, 6700
1374, 5728,  426, 5985, 6189
1375, 5413,  454, 5361, 5688
1376, 2205, 4748,  453, 2204
1377,  463, 4748, 2205, 2206
1378, 1200, 6570, 6500, 6395
1379, 6369, 1200, 6395, 6289
1380, 6843, 6082, 6070, 5867
1381,  453, 5575, 5045, 2204
1382,    7, 1367,  452, 2203
1383, 2204, 5045,    6, 1366
1384, 1302, 5721, 5944, 6154
1385, 5944, 6241, 6338, 6154
1386, 7208, 6455, 6338, 6553
1387, 1201, 6542, 6651, 6477
1388, 6078, 1166, 6252, 6341
1389, 5516,  429, 5625, 5737
1390, 1368,    7, 2203, 1984
1391, 5035, 2203,  452, 5365
1392, 1983, 6759, 4797,  430
1393,  430, 4797, 5173, 5689
1394, 5981, 6232, 6404, 1169
1395, 1204, 6599, 6456, 6404
1396, 5389,  432, 5786, 5601
1397, 7174, 7072,  434, 4764
1398, 7634, 4389, 5359, 5263
1399, 4024, 3921, 3973, 4383
1400, 4099,  438, 4059, 4010
1401, 5400, 5197, 7563, 7447
1402, 4285,  439, 5002, 4085
1403, 4161, 4194, 4123, 7836
1404,  407, 4270, 4184, 4166
1405, 4262, 4305, 4277, 7976
1406, 6745, 5368, 4822,  444
1407, 6641, 6636, 6579, 6521
1408,  449, 6522, 6439, 6389
1409,  450, 6257, 6141, 6013
1410, 2777, 2832,  454, 4748
1411, 5636, 5874, 6977, 5097
1412, 5636, 5826,  457, 5874
1413, 6227, 5943,  461, 6109
1414, 4859,  462, 6782, 5184
1415, 5364, 1984, 2203, 5035
1416, 5595, 5035, 5365, 5888
1417,  426, 5688, 5361, 5587
1418, 5361, 4800, 6922, 5587
1419,  456, 5829, 5089, 5476
1420, 2519, 2561,  463, 2206
1421, 3108, 3010,  464, 2884
1422, 7071, 5885, 6029,  467
1423,  470, 6176, 5929, 6115
1424, 4908,  471, 5527, 5226
1425, 3030, 6772,  480, 2787
1426, 5372, 4676, 5597, 6848
1427, 5898, 5572,  484, 5101
1428, 5807, 5913, 6089,  477
1429, 5277, 4932, 6763, 6783
1430, 3257,  490, 3391, 3281
1431, 7057, 5859, 6081, 6937
1432, 5330, 4978,  487, 5569
1433, 2779,  253, 2964, 6796
1434, 3257, 3014, 3187,  490
1435, 7157, 3771, 7147,  492
1436, 5598, 5390, 5604, 5866
1437, 5331, 4983,  494, 5584
1438,  504, 3121, 3239, 7570
1439, 3369, 3287,  504, 7570
1440, 2737,  506, 2836, 3181
1441, 3551, 3624, 3473, 3529
1442, 3812, 4690, 3633, 3762
1443, 3806, 3866, 3803, 1096
1444, 1028, 5340, 7968, 4065
1445, 5954, 5708, 6071, 6278
1446, 6158,  991, 6194, 5974
1447, 6325, 6235,  956, 6425
1448, 3071, 3007, 2820, 2742
1449, 3007, 3082, 2947, 2820
1450,  702, 1872, 2251, 2330
1451, 2725, 2663, 2466, 2402
1452, 1680, 1693, 1732,  688
1453, 2442, 2408, 6973, 2320
1454, 1872, 2255, 2329, 2251
1455, 2266, 2388, 2452,  507
1456, 2363, 2460, 2574, 2547
1457, 2613, 2557, 7179, 2708
1458, 3004, 2817, 2898, 1067
1459, 3425, 3150, 3289, 3500
1460, 3914, 4020,  997, 4018
1461, 3425, 3500, 3472, 1032
1462, 1031, 3922, 7869, 3864
1463,  997, 4020, 7911, 4051
1464, 4096, 4057, 4007, 4051
1465, 1635,  509, 1576, 1640
1466,   89, 1647, 1602,   88
1467, 2469, 2382, 2439, 2525
1468, 1135, 2243, 2333, 2379
1469,  508, 2332, 2266, 1880
1470, 1662, 6809, 1788, 6768
1471, 1789, 1887, 1822, 1731
1472,  530, 1802, 1789, 1695
1473, 1661,  510, 1728, 1724
1474, 2417, 2473, 2555, 2725
1475, 3000, 2856, 2891, 1132
1476, 7251, 2979, 2891, 2856
1477, 3197, 3207, 3266, 7630
1478, 3400, 3447, 3560, 1065
1479, 4045, 3958, 3472, 4723
1480, 3903, 3798, 3864, 4135
1481, 4134, 4057, 7961, 7944
1482, 4087, 7953, 4134, 4165
1483, 5222, 4907,  511, 5540
1484, 5933, 6058,  512, 6159
1485,  514, 5299, 5515, 7286
1486, 5299, 5614, 5305, 5009
1487, 5168, 4148, 4762,  552
1488, 4111, 4178, 4788, 4075
1489, 3703, 3619, 3677, 3745
1490, 3519, 3433, 7641, 3335
1491, 3290, 3335, 7527, 3359
1492, 2733, 2731, 2565, 2648
1493, 2517, 2463,  523, 1889
1494, 1636,  544, 1674, 1737
1495, 1696, 1636, 1737, 1790
1496, 1536, 1537, 1641, 6770
1497, 2209, 2223, 2262, 1902
1498, 7434, 2750, 2374, 2464
1499, 3137, 3088, 1070, 3085
1500, 7739, 3549, 3556, 7648
1501, 3804, 3688, 3766, 3863
1502, 5857, 7827, 4095, 5419
1503, 4757, 4736, 5310, 5626
1504, 3383, 3386, 3660,  860
1505, 3595,  824, 3662, 3504
1506,  755, 3665, 2688, 6864
1507, 4658, 2273,  718, 4955
1508, 2592, 2506, 2434,  752
1509, 1665, 1617,  529, 1715
1510, 2459, 2363, 2547, 2636
1511, 2888, 3181, 2836, 2867
1512, 3624, 3551, 2945,  533
1513, 3360, 3229, 3297, 3435
1514, 3501, 3506, 3431, 7655
1515, 1031, 3742, 3685, 3631
1516, 7928, 3903,  995, 4186
1517, 4156, 4105, 4124, 7956
1518, 4186, 4091, 4140, 4207
1519, 4047, 4140, 4091,  962
1520, 1130, 3710, 3656, 4739
1521, 3656, 3606,  535, 3709
1522, 3942,  537, 3999, 7636
1523,  538, 7635, 5157, 5056
1524, 7391, 6088, 6598, 7393
1525,  540, 6237, 6099, 7135
1526, 5914, 6949, 6162, 6308
1527, 5275, 4931, 6765, 6786
1528, 2850, 7301,  547, 7215
1529, 3037, 3160, 2970,  560
1530, 7605, 3620, 3273, 7514
1531, 3745, 7814, 4101,  551
1532, 4025, 3959, 4074, 4111
1533, 4148, 4118, 4179, 4762
1534, 7354, 4600, 4593, 4605
1535, 5432,  554, 4729, 5194
1536, 5180, 4866,  556, 5524
1537,  570, 2337, 2422, 2241
1538, 2997, 3120, 2716, 2916
1539, 2925, 3002, 3247, 3089
1540, 4885, 4855,  562, 3437
1541, 7627, 5803, 7701, 5634
1542, 4595, 4578, 4589,  564
1543, 4589, 4578, 4582, 4596
1544,  566, 4615, 4613, 4734
1545, 7029, 4734, 4613, 4617
1546, 5477, 5078, 6882, 4632
1547, 1652, 1704, 1713, 1762
1548,  583, 2338, 1863, 1766
1549, 2671, 2652, 2446, 2414
1550, 3002, 3080, 3161, 3247
1551, 3243, 3376, 3312,  573
1552, 3491, 3625, 3582,  574
1553, 5241, 7744, 4742, 7660
1554, 4535,  589, 4545, 5391
1555,  577, 4547, 4561, 4588
1556, 4576, 4852,  578, 4570
1557, 4602,  579, 4594, 4587
1558, 4625, 4606,  592, 4620
1559,  595, 2307, 2247, 1804
1560, 2476, 2478, 2403, 2527
1561, 2554, 2653, 2702, 2614
1562, 3051, 2903, 2996, 3244
1563, 3367, 3267, 7285, 3446
1564,  586, 7612, 7693, 7692
1565, 3930, 4957, 3792, 7637
1566,  589, 4535, 4503, 4520
1567, 4520, 4503, 4510, 4536
1568, 4878,  591, 4601, 4581
1569, 4614,  593, 4620,  592
1570, 2738, 2829, 2646, 2546
1571, 2999, 2738, 2546, 7036
1572, 3074, 3159, 2996,  597
1573, 3375, 3310, 3241, 7457
1574,  600, 7575, 3648, 3931
1575,  601, 4653,  614, 4498
1576, 4472, 4457, 4521,  602
1577, 4956, 4629, 4633, 4684
1578, 2290, 1858, 2245, 2215
1579, 2245, 1610, 1896, 2215
1580, 2572,  608, 2658, 2767
1581,  609, 2999, 2491, 3072
1582, 3440, 7567, 3374, 3271
1583, 3271, 3374, 3455, 3333
1584, 3751, 3681, 4129,  613
1585, 4451, 4475, 4466, 5382
1586, 4523, 4428, 4425, 7261
1587, 4512, 4504, 7068,  617
1588, 4538, 4554, 4731,  618
1589, 5171, 5177, 4865,  619
1590, 2938,  624, 7415, 2840
1591, 7475, 3078, 3134,  625
1592, 7820, 3905, 3966, 4008
1593, 4072, 4027,  629, 5382
1594, 4467, 4336, 4352, 7355
1595, 7261, 4425, 7355, 4381
1596, 7172,  632, 7039, 4543
1597, 5110,  632, 5609,  633
1598, 5218, 4904, 6778, 6841
1599, 2583, 2676, 2586,  637
1600, 2713, 3012, 6980, 2732
1601, 2732, 6980, 5001, 4924
1602, 6806, 2812, 3013,  278
1603, 3183, 4823, 6788, 3256
1604,  656, 2955, 3023, 3322
1605, 3180, 3022, 3114,  657
1606, 3114, 2955,  656, 3185
1607, 6812, 2825, 3109, 3023
1608,  643, 3180, 4722, 5084
1609,  659, 4528, 4533, 4550
1610, 4514, 4528, 4497, 4507
1611,  646, 4514, 4507, 4637
1612, 4528,  645, 4549, 4533
1613, 4637, 4507, 4515, 4640
1614, 5334, 4811, 5093, 6930
1615, 5552, 5189, 5532,  648
1616, 7023,  652, 2573, 6993
1617, 6939, 7087, 6941, 6940
1618, 4724, 3253, 3322, 5126
1619, 3253,  667, 3323, 7046
1620,  657, 3114, 3185, 4876
1621,  656, 3322, 3253, 7046
1622, 4876,  668, 5482, 5161
1623,  670, 4575, 4749, 4765
1624, 4480, 4478,  671, 4473
1625, 4456, 4485, 4473,  671
1626, 4488, 4473, 4485, 4497
1627, 7002, 4495, 6916,  660
1628, 4954, 4518, 6829, 4557
1629,  675, 1746, 1685, 1653
1630, 1714, 1844, 1697, 1685
1631, 3087, 3012, 2896, 3077
1632, 2747, 3087, 3077, 2605
1633, 3311, 3045, 3199, 5649
1634, 5649, 7182,  666, 7069
1635, 4301, 4331, 4354, 5447
1636,  667, 5444, 4922, 3323
1637, 4724, 5126, 5159, 7155
1638, 4354, 4331,  669, 5030
1639,  682, 4331, 4301, 4298
1640, 4469, 7315, 7287, 4440
1641, 4429,  684, 4427, 4527
1642, 4546, 4517, 4470,  685
1643, 4506,  673, 4516,  672
1644, 4478, 4469, 4440,  671
1645, 4705, 4537, 6830, 4556
1646, 2320, 7112, 2407, 6849
1647, 6932, 2407, 2655, 2230
1648, 2899, 2928, 3032,  678
1649, 3314,  692, 3262, 3334
1650, 5374, 5375, 4691, 7379
1651, 5094, 5216,  681, 4886
1652, 3262,  693, 4882, 3334
1653, 4774, 4298, 4255, 4242
1654, 4297, 4208, 4303, 4851
1655,  684, 4378, 4362, 4427
1656, 4544, 4517, 4546, 4950
1657, 5842,  699, 5669,  700
1658, 5024,  686, 5086, 5313
1659, 4774, 4242, 4274, 5051
1660, 4378, 4851, 4303, 4357
1661, 4427, 4362, 4395, 4412
1662, 1831, 1878, 1792, 1835
1663, 2642, 2723, 2532,  703
1664, 3263, 4929, 3262,  692
1665, 4807, 5085,  707, 7631
1666, 5050, 5052, 5085, 5435
1667, 4114, 4120, 7445,  708
1668,  709, 4397, 4358, 7260
1669, 4728, 7058, 4411, 5120
1670, 4728, 5154, 6898,  698
1671, 5143, 5763, 5496, 6785
1672,  700, 5669, 5143, 4837
1673, 4120, 4114, 4377, 7260
1674, 4357, 4335, 4380,  697
1675, 4395, 7058, 4728,  698
1676, 6985, 6905, 5154, 6989
1677, 1872,  702, 1829, 1827
1678,  701, 1828, 1786, 1743
1679, 1880, 6803, 1876,  508
1680, 5052, 3485, 3940, 4686
1681, 4114, 3996, 4080, 4377
1682, 5633, 7030, 7031, 7088
1683, 6170, 5951, 7091, 7016
1684, 4857,  712, 6785, 5179
1685, 1693, 1785, 1898, 1732
1686, 1435,  155, 2126, 2087
1687, 2271, 2351,  714, 4915
1688, 2674, 2591, 2322, 2272
1689, 2507, 2429, 2957, 6869
1690, 2274, 2350, 2434,  717
1691, 2272, 2322,  716, 2344
1692,  719, 2273, 4658, 5414
1693, 4785, 2427, 2400, 5054
1694, 2325,  720, 2502, 6815
1695, 2587, 2326, 2672,  721
1696, 2861, 4664, 2425,  757
1697, 5096,  759, 4854, 5459
1698, 4481, 4499, 4854,  759
1699, 4786, 2426,  726, 2399
1700, 2426, 2501, 2324,  726
1701,  727, 2588, 2590, 2673
1702, 4663, 2428, 7014, 2765
1703, 6938, 5596,  765, 5508
1704, 4666, 2279,  730, 5247
1705,  731, 2279, 4666, 5132
1706, 2345, 2400,  720, 2270
1707, 2589, 2769, 2325, 6781
1708, 2326,  722, 2267, 2672
1709, 2398, 5388, 2492, 2346
1710, 5096, 5459, 5370, 5484
1711, 4499, 4487,  725, 5004
1712, 2347, 2399,  726, 2269
1713,  727, 2768, 2324, 2588
1714, 2268, 2323,  728, 2348
1715, 5304, 5247,  730, 4996
1716, 2431, 2515, 2770,  768
1717, 2670, 2597,  732, 2755
1718, 3182, 4782, 3105, 3015
1719,  736, 2277, 2318, 6819
1720, 6820, 2499, 2353, 2394
1721, 5121, 5043, 4948,  737
1722, 5502, 4991,  738, 4083
1723, 5205, 3901, 3893, 3834
1724, 4673, 2599,  741, 2766
1725,  742, 2354, 2395, 2433
1726, 2317,  743, 5047, 2278
1727, 4760, 3113, 3184, 6822
1728, 3325, 3399, 3464,  744
1729, 3613, 4875, 3470, 3540
1730,  746, 4884, 5257, 4949
1731,  730, 1945, 1921, 4996
1732, 1434,  154, 2125, 2088
1733, 4721,  749, 6861, 5046
1734, 2600,  749, 2692, 6871
1735, 2603, 7012, 2691,  751
1736,  787, 2680, 2763, 3103
1737, 2680,  787, 2865, 2762
1738, 2603,  751, 2504, 6814
1739, 2680, 6869, 7011, 2763
1740, 3466, 4789, 3389, 3315
1741, 3665,  755, 2863, 2760
1742,  790, 3777, 2761, 2688
1743, 3175, 2687, 2758, 6902
1744, 2862, 2687, 3175,  792
1745, 7064, 2940, 7118, 4710
1746, 4484,  794, 4458, 4476
1747,  796, 2686, 2756, 4447
1748, 2757, 2686,  796, 5027
1749, 2689, 2764, 3177,  798
1750, 2864, 2689,  798, 7120
1751, 4708,  764, 2942,  799
1752,  800, 6036, 5862, 5246
1753, 5834, 5855, 5702, 7035
1754, 6781, 2606, 2860,  756
1755, 2608,  757, 2425, 2500
1756, 2759,  757, 2687, 2862
1757, 4719, 5252, 4710, 5244
1758, 4458, 4453, 4419,  795
1759, 2756, 2686,  761, 2859
1760,  762, 2501, 2607, 2858
1761, 2604,  763, 2503, 6859
1762, 7014,  763, 2689, 2864
1763, 5596, 7034, 5246, 5862
1764,  802, 4016, 4777, 7015
1765, 2870, 2914,  769, 6839
1766, 2509, 2580,  771, 2432
1767, 2772,  771, 2678, 2872
1768, 3468, 4778, 3395, 3317
1769, 3659, 3526,  809, 3714
1770, 3834, 3893, 3714, 3776
1771, 2774, 2681,  777, 2513
1772, 3019, 2874, 2924, 3112
1773, 5230, 4901,  782, 5307
1774, 2124, 2089, 1433,  153
1775,  783, 4870, 5175, 6792
1776, 5128, 4997,  784, 6792
1777,  819, 5337, 5320, 5894
1778, 3103, 4741, 3020,  787
1779, 3020,  821, 3102, 2952
1780, 3178, 3888, 3201,  788
1781, 5017,  786, 2691, 7012
1782,  788, 2949, 2952, 3178
1783, 3410, 3599, 3525,  789
1784, 3777, 3727, 3663,  791
1785, 3098, 3176, 3248, 3016
1786,  827, 4809, 5082, 5249
1787, 4402, 4434, 4809, 7243
1788, 4435, 4419,  828, 4443
1789, 4435, 4669,  796, 4447
1790, 3017, 3100, 4763,  831
1791, 3099, 7127, 7233, 5037
1792, 5449, 4821, 3099, 7373
1793, 5661, 5297, 5156, 5820
1794, 6036, 7137, 5820, 7035
1795, 3098, 3016,  792, 3175
1796, 2946, 4819, 7118, 7144
1797, 5088, 5082, 5442,  793
1798,  829, 5300, 5371, 4669
1799, 3100, 3017, 7120,  798
1800,  799, 2942, 2864, 2948
1801, 4821, 5091,  799, 2948
1802,  836, 3604, 3827, 7204
1803, 4887, 3065, 3251,  805
1804, 4726,  806, 3106, 4773
1805, 2954,  807, 2872,  806
1806, 3179, 3209,  807, 2954
1807, 7108, 3601,  809, 3526
1808, 3776, 3833, 4732,  810
1809, 3990, 3935,  844, 3875
1810,  812, 3949, 3831, 3649
1811, 3174, 3018, 3326, 3255
1812, 3174, 3254, 3064, 3018
1813, 5788, 5296, 7017, 5294
1814, 5190, 4868,  816, 5533
1815, 5494,  818, 5422, 5175
1816, 5894, 6037, 5996,  819
1817, 5687,  819, 5996, 7241
1818, 5212, 7284, 5640, 7268
1819, 3950, 7117, 4953,  856
1820, 3895,  857, 3769, 3826
1821, 3664,  823, 3769, 3689
1822, 7238, 3883, 3664, 3689
1823,  821, 7106, 5212, 4696
1824, 7117, 3950,  822, 7026
1825,  823, 3465, 3826, 3769
1826, 3504, 3463,  825, 3595
1827, 3463, 3386, 3206,  825
1828,  862, 4349, 4373, 7359
1829, 4327, 4374, 4349,  862
1830, 4374, 5007,  829, 4443
1831, 5285, 7307, 5652,  866
1832, 5741, 5285,  866, 5806
1833, 4994, 5297, 5336,  868
1834,  834, 7203, 4994, 7296
1835, 3462, 5394, 3272, 3383
1836, 4349,  828, 4394, 4373
1837,  828, 4349, 4374, 4443
1838, 5007, 5266, 5300,  829
1839, 7341, 4763, 5456, 5106
1840, 3099, 5037,  832, 7373
1841, 5490,  832, 5285, 5741
1842, 3321, 3396, 4847,  838
1843, 3459,  840, 3531,  874
1844,  841, 3340, 3356, 4685
1845, 5010, 3668, 7271,  842
1846, 5104, 4958,  843, 5631
1847,  844, 3935, 7350, 3844
1848, 3695, 7369, 3669, 7431
1849,  846, 3538, 3469, 3385
1850, 4642,  848, 4636, 7200
1851,  850, 5505, 5151, 4832
1852, 6479, 6281, 6502, 6142
1853, 6064, 5988, 5755,  854
1854, 5114, 5682, 5344, 7234
1855, 4294, 4317, 7401, 7234
1856,  891, 4249, 4218, 4183
1857, 3945, 7498, 3985, 3867
1858, 4160, 7507, 7463, 4046
1859, 4046, 7322, 4147, 4160
1860,  855, 7268, 5640, 5825
1861, 4294,  890, 7408, 4317
1862, 3986, 3945, 3867,  857
1863, 4038, 4856, 3867, 3985
1864, 3598, 3527,  860, 3660
1865,  860, 3527, 3597, 3432
1866, 7560, 5694, 7495, 5441
1867,  897, 7618, 4288, 7709
1868, 4246, 4254, 4256, 7688
1869, 4279, 4816,  863, 4334
1870, 5439, 5624, 7496, 5068
1871, 5470,  865, 5439, 5858
1872,  901, 5812, 5264, 5980
1873,  867, 5742, 5336, 5659
1874,  868, 5336, 5506, 5699
1875, 5248, 7396, 5092, 5458
1876, 7359, 4919, 4975, 4325
1877, 4256, 4254, 4279, 4307
1878, 5264, 5650, 5204,  900
1879, 5594, 5386, 7426, 5214
1880, 5111,  869, 4916, 5457
1881, 3565, 7357, 3602, 3533
1882, 7357, 5125,  872, 3602
1883, 3943,  875, 3987, 7486
1884, 3857,  876, 3889, 3830
1885, 5245,  876, 3857, 5467
1886, 5129,  878, 4926, 5893
1887, 4656, 7473, 4992, 3891
1888, 5033, 4720, 3726,  879
1889, 7312, 3609, 3537, 3552
1890, 7225, 4717, 4639,  881
1891, 5645, 5318,  882, 5136
1892, 5756, 5847, 5675,  883
1893,  919, 5667, 5836, 6015
1894, 5836, 6826, 6016, 6202
1895, 6000, 5654, 7228,  888
1896, 5344, 7228, 5032,  889
1897, 4258, 4316, 4848, 7468
1898, 4183, 7545, 7625, 4989
1899, 4264, 7717, 4146, 7714
1900, 4078, 4751, 4035,  926
1901, 4033, 3764, 3820,  927
1902,  894, 3661, 3679, 3764
1903, 4258, 4248,  890, 4294
1904, 4177,  891, 4183, 4989
1905,  892, 7532, 4115, 4081
1906, 3979, 3910,  893, 7507
1907, 3734, 3884, 5393, 3718
1908, 4697, 5310, 4736,  930
1909, 7709, 4250, 4227,  897
1910, 4199, 4094, 4172, 4246
1911, 4116, 4026, 5158, 7689
1912, 5608, 5206, 3977, 7799
1913,  937, 5287, 5643, 7735
1914, 7735, 5643, 5367,  936
1915, 4250, 7709,  896, 4697
1916, 4139, 4172, 4094,  932
1917, 4759, 4139, 4171, 5408
1918, 5068, 7496, 7529, 5020
1919, 4768, 3924, 3977, 5206
1920, 6019, 5882, 7638,  938
1921, 4965,  906, 4921, 3720
1922, 7683,  906, 4965, 5349
1923, 6251, 5936, 6084, 7759
1924, 5155, 5658, 7578, 4744
1925, 4988,  910, 3988,  909
1926, 5343, 5517,  910, 4988
1927, 5198, 5317,  914, 4720
1928,  915, 7364, 4844, 5354
1929, 7225, 4643, 7101,  916
1930,  954, 6222, 5967, 5761
1931, 6346, 5967, 6222,  955
1932,  923, 5289, 5511, 5704
1933,  924, 4848, 5451, 5095
1934, 4275, 7556, 4738,  925
1935, 4220,  926, 4232, 7851
1936, 7740, 4078, 4163, 4119
1937,  928, 3981, 3933, 3860
1938, 4162, 4195, 4122,  964
1939, 5857, 5419, 4286, 7770
1940,  965, 3908, 4021, 7901
1941, 4012, 4061, 4084, 7813
1942, 4030,  967, 3918, 3997
1943, 4031, 3616, 3760, 4049
1944, 3616, 3761, 3690, 3760
1945, 3822, 3741,  971, 3785
1946, 3822, 4820, 3819, 3741
1947, 4850, 4068, 7865, 3964
1948,  967, 4012, 3962, 3913
1949, 4031, 4070, 3997,  968
1950, 3813, 3690, 4769,  935
1951, 7848, 4106, 7762, 4141
1952, 3785, 3904,  937, 3822
1953, 5311, 5301, 5651, 7785
1954, 5485, 5879, 5301,  974
1955,  943, 5736, 5209, 5615
1956, 5615, 5744, 5713,  943
1957, 5378, 4730, 5577, 7784
1958, 5059, 6164, 5565, 5242
1959, 6474, 7602, 6362, 6428
1960, 5753,  948, 5648, 7485
1961,  949, 7269, 5895, 6038
1962, 5620, 5837,  950, 5809
1963,  952, 5672, 5146, 4831
1964,  953, 5495, 5142, 4825
1965, 6425, 6571, 7482, 6325
1966, 5724, 6274, 6158, 5974
1967, 5709,  993, 7860, 5258
1968, 4713, 4187, 4756, 4998
1969,  961, 4119, 4213, 4187
1970, 5871,  959, 5590,  958
1971,  960, 7897, 5480, 5258
1972, 7877, 4095, 7827, 7912
1973,  999, 3766, 3688, 3643
1974, 3766,  999, 7934, 3805
1975, 7895, 3756, 3801, 3757
1976, 1002, 3576, 3417, 7950
1977, 3489, 3575, 3493, 3409
1978, 3489, 1003, 3555, 3636
1979, 7864, 4755, 3628, 3701
1980, 7934, 3851, 7936, 7935
1981, 3918, 3862, 3756, 7832
1982, 3498, 4683, 3545, 3639
1983, 4879, 1006, 3699, 5433
1984, 3846, 7815, 3837, 3839
1985, 4054, 3917, 3967, 4001
1986, 4245, 4889, 4181, 4212
1987, 7926, 7854, 7883, 7925
1988, 4367, 4808, 4343, 7951
1989, 1014, 6175, 5865, 6005
1990, 7725, 7562, 6297, 1014
1991, 6377, 6409,  981, 5987
1992,  983, 6268, 6345, 6467
1993, 6391,  984, 6226, 7063
1994, 4867,  985, 6831, 5183
1995, 5181, 4858,  986, 5525
1996, 6051,  987, 6171, 6330
1997, 6643, 6446, 6520, 6695
1998, 4960, 4005, 4104,  993
1999, 7977, 4105, 4156, 7974
2000, 7960, 4104, 4005, 4062
2001,  993, 5794, 5107, 4960
2002, 4803, 3571, 3688, 3804
2003, 7837, 7796, 3708, 3770
2004, 3840, 7855, 3799, 1000
2005, 3264, 3210, 3165, 3387
2006, 1037, 3235, 3208, 3165
2007, 3269, 1038, 3283, 3497
2008, 3283, 3351, 3423, 3497
2009, 3783, 7855, 7852, 3299
2010, 3238, 3298, 3345, 3261
2011, 1040, 3331, 7772, 3274
2012, 3584, 3673, 3502, 3438
2013, 3900, 3957, 3878, 3584
2014, 4143, 4103, 4053, 1044
2015, 4304, 7853, 4333, 7916
2016, 7951, 1013, 7861, 4367
2017, 7881, 7800, 7801, 6005
2018, 6276, 7726, 6426, 6363
2019, 1016, 6575, 6434, 7351
2020, 6445, 1017, 6449, 6394
2021, 7265, 6638, 6445, 7427
2022, 5931, 7018, 6172, 6309
2023, 4910, 1020, 5526, 5224
2024, 5223, 4911, 1021, 5541
2025, 1022, 6160, 5932, 6057
2026, 1023, 6544, 6465, 6307
2027, 7711, 6512, 7755, 7790
2028, 7790, 6368, 6423, 7711
2029, 1027, 5983, 5637, 5292
2030, 4947, 3849, 7968, 4006
2031, 3810, 3811, 3680, 3747
2032, 3621, 3685, 3742, 3730
2033, 1030, 3810, 3747, 3782
2034, 3890, 3953, 3849, 7913
2035, 7739, 7648, 3557, 3627
2036, 7661, 3193, 4667, 3088
2037, 2844, 2975, 7890, 7662
2038, 2950, 2913, 1071, 2830
2039, 2980, 2921, 2853, 4680
2040, 2921, 2980, 3055, 7591
2041, 2913, 2975, 2844, 1071
2042, 3046, 7751, 2988, 7675
2043, 2837, 2969, 7686, 2966
2044, 3048, 1076, 3230, 3143
2045, 3442, 4894, 7569, 3296
2046, 4923, 5022, 4190, 3600
2047, 4361, 3817, 3763, 1079
2048, 3876, 3763, 3817, 1046
2049, 5352, 7786, 5605, 7856
2050, 5321, 7906, 5738, 5489
2051, 5910, 6217, 1049, 5989
2052, 1051, 5973, 6167, 7417
2053, 6326, 7264, 6485, 6348
2054, 6161, 5917, 5998, 1053
2055, 5274, 4935, 6777, 6832
2056, 5273, 4937, 1055, 5563
2057, 1056, 6151, 5918, 6075
2058, 1057, 6543, 6462, 6305
2059, 5739, 1061, 5860, 7931
2060, 1093, 7910, 6066, 6286
2061, 5384, 1062, 5340, 7981
2062, 3866, 3946, 7849, 3803
2063, 7765, 1097, 3550, 3706
2064, 3550, 3596, 3642, 3706
2065, 3447, 3400, 1066, 7595
2066, 3092, 3150, 3223, 7595
2067, 2696, 2694, 2799, 2809
2068, 7434, 2841, 2800, 2750
2069, 2440, 2523, 2562, 1103
2070, 2467, 2441, 2521, 2622
2071, 2533, 2682, 2441, 1105
2072, 2516, 2523, 2440, 2378
2073, 2560, 2601, 2617, 7499
2074, 2625, 2647, 2536, 2418
2075, 2987, 2967, 2805, 2907
2076, 3362, 4780, 3293, 3205
2077, 3292, 3338, 3426, 3508
2078, 4891, 3829, 3939, 1081
2079, 7905, 5005, 1114, 5291
2080, 5383, 5423, 5430, 1115
2081, 5579, 5376, 4698, 5239
2082, 1118, 4877, 4295, 5036
2083, 5282, 1119, 5750, 5514
2084, 7263, 6399, 6152, 6326
2085, 5326, 4981, 1087, 5564
2086, 5329, 4982, 1088, 5582
2087, 1089, 6238, 5947, 5716
2088, 6608, 1090, 6534, 1091
2089, 6487, 6540, 1092, 6358
2090, 7803, 6358, 6286, 6066
2091, 7839, 7840, 7806, 1128
2092, 5250, 5475, 5240, 1094
2093, 1096, 3803, 3737, 3704
2094, 3297, 7454, 3401, 3431
2095, 3360, 3503, 4690, 3436
2096, 3207, 3197, 1099, 7519
2097, 2922, 2848, 1100, 2817
2098, 1101, 2707, 2620, 2535
2099, 2233, 2451, 1886, 7235
2100, 1852, 7134, 2299, 7235
2101, 2224, 1799, 1853, 2296
2102, 2208, 2236, 2224, 2283
2103, 2328, 2339, 2210, 2211
2104, 2231, 2297, 2300, 1885
2105, 2489, 2361, 2461, 2522
2106, 2983, 4659, 5347, 2552
2107, 3365, 3490, 3415, 1111
2108, 3303, 3234, 1146, 3378
2109, 3879, 3698, 3736, 1114
2110, 7873, 4145, 5383, 5019
2111, 4167, 1151, 4226, 4185
2112, 4295, 4877, 7579, 4231
2113, 5282, 5036, 5348, 5653
2114, 5653, 5822, 1119, 5282
2115, 5327, 4987, 1121, 5581
2116, 5328, 4977, 1122, 5567
2117, 1123, 6153, 6105, 5719
2118, 6552, 1124, 6360, 6414
2119, 6185, 6300, 6233, 1126
2120, 1127, 5360, 5519, 7670
2121, 7695, 4928, 5360, 1127
2122, 3060, 2891, 2979, 3144
2123, 1134, 2557, 2613, 2730
2124, 2382, 1135, 2379, 2439
2125, 1614, 1690, 1676,  528
2126, 1719, 1750, 1675, 1682
2127, 1821, 1861, 1790, 1737
2128, 2364, 2550, 2640, 2727
2129, 3050, 1145, 2993, 2959
2130, 2989, 3083, 4917, 3050
2131, 3456, 3523, 3309, 3404
2132, 7844, 7843, 3896, 7907
2133, 4002, 4003, 7874, 3989
2134, 4269, 4296, 4761, 1152
2135, 5684, 7279, 7280, 5118
2136, 5990, 5752, 6187, 5919
2137, 5272, 4941, 1155, 5562
2138,  532, 2893, 7177, 2633
2139, 1157, 6410, 6886, 6119
2140, 6674, 1158, 6609, 7109
2141, 6746, 6687, 1159, 6722
2142, 6406,  422, 6602, 6513
2143, 6447, 6400, 6444, 6523
2144, 6218, 1163, 6285, 5886
2145, 6189, 5985, 1164, 6380
2146, 6870, 5711,  427, 6216
2147, 5173, 4797,  429, 5516
2148, 5909, 6284, 6030, 5766
2149, 1204, 6463, 6536, 6642
2150, 6642, 1235, 6683, 6663
2151, 5981, 5747, 1168, 6232
2152, 6270, 6287, 1171, 6355
2153, 6417, 6280, 6355, 6488
2154, 5263, 5622, 5662, 7439
2155, 1175, 4338, 4364, 4341
2156, 1176, 4204, 4315, 4287
2157, 4754, 4638, 4641, 4449
2158, 4230, 4260, 4430, 7441
2159, 5387, 1178, 7555, 7604
2160, 5868, 7780, 7652, 1179
2161, 7737, 7808, 5015, 5618
2162, 7779, 6755, 6750, 6745
2163, 1183, 6751, 6677, 6735
2164, 6749, 6493,  446, 6732
2165, 6582, 6431, 1188, 6596
2166, 5839, 5671, 1223, 6775
2167, 1191, 5676, 5849, 6027
2168, 1192, 6246, 6122, 5849
2169, 6644, 6904, 1193, 6567
2170, 1194, 6739, 6699, 6644
2171, 6707, 1196, 7436, 7327
2172, 6447, 1161, 6606, 6525
2173, 6379, 1162, 6516, 6416
2174, 6380, 6448, 6504, 6437
2175, 6289, 6395, 6252, 1166
2176, 6341, 6252, 1201, 6477
2177, 6361, 1203, 6284, 5909
2178, 1203, 6361, 6457, 6566
2179, 7151, 6617, 6692, 6652
2180, 6494, 1271, 6551, 6619
2181, 6303, 6408, 6657, 6585
2182, 6419, 6298, 1239, 6420
2183, 4346, 4360, 1210, 4287
2184, 1243, 4450, 4437, 4423
2185, 1212, 4489, 5008, 5251
2186, 4714, 7460, 5028, 4539
2187, 5103, 1214, 4888, 5448
2188, 5735, 5202, 1215, 5308
2189, 1216, 7580, 5892, 5471
2190, 6340, 1217, 6407, 6753
2191, 7617, 6736, 7645, 6752
2192, 6260, 6332, 6111, 7003
2193, 1221, 6332, 6260, 6386
2194, 1223, 5671, 5147, 4829
2195, 1224, 5507, 5152, 4827
2196, 6230, 6352, 5961, 6048
2197, 7211, 6686, 7093, 1226
2198, 6698, 6721, 6741, 1227
2199, 6672, 1228, 6704, 6645
2200, 1230, 6716, 6685, 6626
2201, 1230, 6697, 6676, 6716
2202, 7209, 6613, 6500, 6570
2203, 1233, 6702, 6646, 7208
2204, 1233, 6623, 1234, 6627
2205, 6623, 1233, 7208, 6553
2206, 6315, 5911, 6166, 7020
2207, 6181, 6317, 6885, 1306
2208, 6662, 6605, 1205, 6710
2209, 6671, 6533, 7330, 6593
2210, 6564, 1273, 6625, 7086
2211, 5701, 5854, 5623, 5426
2212, 4426, 4418, 7455, 7456
2213, 1279, 4679, 4555, 4542
2214, 4446, 1242, 4418, 4964
2215, 1244, 4483, 4471, 4455
2216, 4534, 1246, 4551, 4563
2217, 1247, 5312, 7522, 5016
2218, 5655, 1248, 5992, 7358
2219, 1249, 7267, 6293, 6129
2220, 6633, 6580, 1250, 6603
2221, 6705, 1251, 6729, 6743
2222, 6713, 6691, 6689, 6727
2223, 4863, 5187, 5529, 1291
2224, 5187, 4863, 1256, 5499
2225, 5191, 4860, 1257, 5534
2226, 6490, 1259, 7111, 6323
2227, 6337, 6480, 6561, 1260
2228, 6528, 6631, 6975, 6413
2229, 1262, 6577, 6454, 6510
2230, 1263, 6351, 6470, 6565
2231, 6466, 1264, 6319, 1265
2232, 6464, 1265, 6316, 1266
2233, 6155, 6370, 6104, 1304
2234, 5279, 4930, 6764, 5548
2235, 4902, 5229, 6779, 1339
2236, 7126, 6496, 6547, 7191
2237, 1271, 6321, 6491, 6551
2238, 6335, 6481, 1272, 6229
2239, 5976, 6186, 5697, 1275
2240, 6438, 6120, 6397, 1309
2241, 4542, 4725, 1314, 4522
2242, 4810, 4461, 4477, 4486
2243, 4490, 4483, 1244, 4501
2244, 1280, 7180, 7273, 4524
2245, 4562, 4551, 1246, 4574
2246, 1282, 7240, 5130, 5979
2247, 6427, 6282, 7105, 1284
2248, 6505, 6581, 7040, 6432
2249, 1287, 6349, 6471, 6524
2250, 6453, 6509, 7042, 7041
2251, 5236, 4899, 1292, 5553
2252, 6125, 1293, 5799, 6906
2253, 5792, 5938, 6990, 1294
2254, 6231, 1295, 5781, 6265
2255, 6265, 6840, 6247, 6901
2256, 6244, 6411, 1297, 6121
2257, 6858, 5962, 6263, 1298
2258, 6054, 5928, 6178, 1300
2259, 6963, 6073, 5797, 5912
2260, 6241, 6104, 6370, 1268
2261, 5332, 4976, 1338, 5571
2262, 1338, 4930, 5279, 5571
2263, 5798, 6965, 1304, 6856
2264, 1306, 5782, 5940, 6181
2265, 6108, 1307, 5773, 6974
2266, 1344, 5670, 5841, 6021
2267, 5644, 5109, 5678, 6094
2268, 5113, 1311, 5497, 5182
2269, 4939, 5271, 5611, 1347
2270, 1312, 5355, 5221, 5031
2271, 4522, 1314, 4541, 4508
2272, 1316, 5784, 5440, 5069
2273, 6255, 5823, 7240, 5937
2274, 1318, 5762, 5953, 7022
2275, 6112, 6220, 5758, 6875
2276, 6824, 1320, 6034, 5832
2277, 6144, 1321, 6138, 6018
2278, 5966, 6349, 6868, 6867
2279, 6866, 1323, 6050, 5778
2280, 4944, 1326, 4943, 5281
2281, 1327, 4898, 5237, 5554
2282, 4873, 5192, 6776, 1328
2283, 1329, 4835, 5153, 5509
2284, 1332, 5674, 5846, 6025
2285, 1332, 4834, 5149, 5674
2286, 1333, 4872, 5185, 5503
2287, 1334, 4912, 5227, 5530
2288, 1335, 4938, 5278, 5547
2289, 1336, 4984, 5333, 5570
2290, 1337, 4976, 5332, 5586
2291, 5188, 1340, 4861, 5504
2292, 4840, 5150, 6780, 1341
2293, 1344, 4839, 5144, 5670
2294, 1348, 4985, 5324, 5339
2295, 5135, 1315, 5486, 5325
2296, 1350, 4933, 5269, 5559
2297, 1351, 4909, 5219, 5537
2298, 4862, 5176, 6793, 1352
2299, 1353, 4828, 5139, 5492
2300, 1356, 5668, 5838, 6017
2301, 1356, 4836, 5145, 5668
2302, 1357, 4874, 5186, 5498
2303, 1358, 4900, 5231, 5528
2304, 4945, 1360, 4942, 5280
2305, 2529, 2452, 2388, 2545
2306, 1363,    4, 2793, 2683
2307, 2519, 2683, 2782, 2561
2308, 2205, 2204, 1366, 1365
2309, 1367,    6, 5045,  452
2310,   12,  376, 2784, 1369
2311, 2790, 2792,   14, 1370
2312, 1373,   15, 2796,  288
2313, 1374, 1373,  288, 2794
2314, 1377,  120, 1436, 1920
2315, 1940,  715, 2674, 1941
2316, 1907, 1924,  106, 1381
2317, 1942, 1938, 2274,  717
2318, 1943, 1939, 2273,  719
2319, 2345, 1926, 1918, 2494
2320, 1927,  721, 2672, 1928
2321, 1916, 2267, 2346, 1929
2322,  723, 1930, 1915, 2492
2323, 1931, 1914, 5003,  724
2324,  725, 1932, 1913, 5004
2325, 1933, 1912, 2347, 2269
2326, 1934,  727, 2673, 1935
2327, 1910, 2268, 2348, 1936
2328, 2090, 2038, 2165, 1326
2329, 2091, 2036, 4944, 1292
2330, 2092, 2034, 4899, 1257
2331, 2093, 2032, 4860, 1224
2332, 2094, 2030, 4827, 1191
2333, 1156, 6022, 2096, 2095
2334, 2097, 2026,  418, 4826
2335, 2098, 2024,  462, 4859
2336, 2099, 2022,  471, 4908
2337, 2100, 2020,  479, 6763
2338, 2101, 2018, 4932,  487
2339, 2102, 2016, 4978,  494
2340, 2103, 1986, 4983,  248
2341, 1985, 2104,  135, 1412
2342, 2105, 2015, 4905,  649
2343, 2106, 2014, 4871,  662
2344, 2107, 2013, 4791,  674
2345, 2108,  687, 5555, 2109
2346, 2110, 1993,  700, 4837
2347, 2111, 1992,  712, 4857
2348, 1991, 2112,  142, 1420
2349, 2113, 2011,  543, 6765
2350, 2114, 2010, 4931, 1122
2351, 2115, 2009, 4977, 1088
2352, 2116, 2008, 4982, 1055
2353, 2117, 2007, 4937, 1021
2354, 2118, 2006, 4911,  986
2355, 2119, 2005, 4858,  953
2356, 2120,  919, 6015, 2121
2357,  885, 6014, 2122, 1990
2358, 1989, 2123,  152, 1431
2359, 2003, 2124,  153, 1432
2360, 2089,  783, 6767, 2125
2361, 2126, 2088, 4897,  748
2362,  713, 2127, 2087, 2435
2363, 1437,  193, 1514, 2055
2364, 2128, 2055, 2202, 1360
2365, 2129, 2054, 4945, 1359
2366, 2130, 2053, 4900, 1358
2367, 2131, 2052, 4874, 1357
2368, 2132, 2051, 4836, 1356
2369, 1355, 6011, 2134, 2133
2370, 2135, 2049, 1354, 4828
2371, 2136, 2048, 1353, 4862
2372, 2137, 2047, 1352, 6762
2373, 2138, 2046, 4909, 1351
2374, 2139, 2045, 4933, 1350
2375, 2140, 2044, 4979, 1349
2376, 2141, 2043, 4985, 1348
2377, 2142, 1999, 4939, 1347
2378, 2145, 2042, 4839, 1344
2379, 1343, 6024, 2147, 2146
2380, 2001, 2148,  176, 1457
2381, 2149, 2041, 1341, 4861
2382, 2150, 2040, 1340, 4902
2383, 2151, 1988, 1339, 6764
2384, 1987, 2152,  180, 1461
2385, 2017, 2153,  181, 1462
2386, 2019, 2154,  182, 1463
2387, 2021, 2155,  183, 1464
2388, 2158, 1332, 6025, 2159
2389, 2029, 2160,  187, 1469
2390, 2031, 2161,  188, 1470
2391, 2033, 2162,  189, 1471
2392, 2035, 2163,  190, 1472
2393, 2037, 2164,  191, 1473
2394, 1326, 2165, 2039, 4943
2395,  229, 1534, 6758, 1476
2396, 2086,  747, 4946, 2085
2397, 2166, 2085, 4946,  782
2398, 2167, 2084, 4901,  816
2399, 2168, 2083, 4868,  850
2400, 2169, 2082, 4832,  884
2401,  918, 6023, 2171, 2170
2402, 2172, 2080,  952, 4831
2403, 2173, 2079,  985, 4867
2404, 2174, 2078, 1020, 4910
2405, 2175, 2077, 1054, 6777
2406, 2176, 2076, 4935, 1087
2407, 2177, 2075, 4981, 1121
2408, 2178, 2074, 4987, 1155
2409, 2179, 2073, 4941,  511
2410, 2180, 2072, 4907,  556
2411, 2181, 2071, 4866,  568
2412, 2182, 2070, 4630,  581
2413, 2183,  593, 4631, 2184
2414, 2185, 2068,  605, 4838
2415, 2186, 2067,  619, 4865
2416, 2187, 2066,  634, 6778
2417, 2188, 2065, 4904,  255
2418, 2189, 2064, 4934,  310
2419, 2190, 2063, 4980,  333
2420, 2191, 2062, 4986,  353
2421, 2192, 2061, 4940,  354
2422, 2193, 2060, 4913,  395
2423, 2194, 2059, 4864,  417
2424,  451, 6012, 2196, 2195
2425, 1994, 2197,  223, 1508
2426, 1223, 2198, 2058, 6775
2427, 2199, 2057, 4829, 1256
2428, 1291, 2200, 1997, 4863
2429, 1996, 2201,  227, 1512
2430, 1360, 2202, 2056, 4942
2431, 1921, 1945,  121, 1397
2432, 1948, 1959,  230, 1515
2433,  732, 1960, 1947, 2755
2434,  734, 1963, 1962, 2276
2435, 1950, 1964,  234, 1520
2436, 1951, 1965,  235, 1521
2437, 1952, 1966,  236, 1522
2438, 1953, 1967,  237, 1523
2439, 1954, 1968,  238, 1524
2440, 1955, 1969,  239, 1525
2441, 1976, 1977, 1529,  242
2442, 1972, 1978,  243, 1530
2443, 1973, 1979,  244, 1531
2444, 1974, 1980,  245, 1532
2445, 1975, 1981,  246, 1533
2446, 1611, 1535, 1579,  495
2447, 1629, 1580, 1536, 6770
2448, 1539, 1537,   25,   26
2449,  528, 1540, 1538, 1614
2450,  101,  102, 1538, 1540
2451, 1656, 1541, 1612,  272
2452, 1700, 1542, 1548,  273
2453, 1543, 1545, 1649, 1645
2454, 1539, 1543, 1645,  527
2455, 1615, 1546, 1544, 6769
2456, 1616, 1550, 1546, 1615
2457,  271, 1555, 1547, 1624
2458,   60,   61, 1547, 1555
2459, 1556, 1548,   66,   67
2460,  526, 6774, 1549, 1551
2461,  529, 1552, 1550, 1616
2462, 1554, 1617, 1618, 1558
2463, 1557, 1559, 1621, 1619
2464, 1558, 1618, 1620, 1560
2465, 1560, 1620, 1622, 1562
2466, 1623, 1621, 1559, 1561
2467, 1622,  510, 1661, 1626
2468, 1627, 1567, 1563, 1663
2469, 1628, 1564, 1568, 1631
2470, 1703, 1556, 1564, 1628
2471, 1671, 1684, 1625, 1639
2472, 1566, 1626, 1640, 1576
2473, 1567, 1627, 1630, 1569
2474, 1631, 1568, 1570, 1633
2475, 1569, 1630, 1632, 1573
2476,  270, 1677, 1632, 1630
2477, 1574, 1638, 1633, 1570
2478, 1639, 1575, 1636, 1696
2479, 1578, 1646, 1638, 1574
2480,  495, 1579, 1580, 1629
2481, 1581, 1634, 1643, 1585
2482, 1644, 1582, 1586,  701
2483,  620, 1587, 1583, 1642
2484,   53,   54, 1583, 1587
2485, 1588, 1584,   73,   74
2486,  635, 1646, 1578, 1584
2487, 1585, 1643, 1686, 1589
2488,  635, 1584, 1588, 1783
2489, 1780, 1686, 1717, 1815
2490,  701, 1586, 1590, 1828
2491, 1704, 1591, 1595,  582
2492, 1606, 1831, 1835, 1592
2493,  675, 1596, 1592, 1835
2494,   80,   81, 1604, 1593
2495, 1655,  594, 1747, 1688
2496, 1596,  675, 1653, 1604
2497, 1597, 1650, 1702, 1607
2498, 1689, 1598, 1608, 1843
2499,  635, 1783, 1744, 1699
2500, 1875,  621, 2215, 1896
2501, 1701, 1720, 1674,  544
2502, 1828, 1590, 2242, 1786
2503, 1655, 1603, 1594, 1651
2504, 1688, 1595, 1603, 1655
2505,  569, 1571, 1605, 1652
2506,  688, 1606, 1572, 1680
2507, 1831, 1606,  688, 1794
2508,  650, 2257, 1607, 1842
2509,   77,   78, 1607, 2257
2510, 1892, 1608,   49,   50
2511, 2257, 1609,   76,   77
2512, 1895, 2256, 2312, 2219
2513,  606, 1892, 1610, 2245
2514, 1669,  495, 1629, 1735
2515, 1751, 1718, 1683, 1676
2516, 1690, 1614, 1611, 1726
2517,  528, 1676, 1683, 6769
2518, 1617, 1665, 1659, 1618
2519, 1659, 1660, 1620, 1618
2520, 1658, 1648, 1619, 1681
2521, 1619, 1621, 6804, 1681
2522,  510, 1622, 1620, 1660
2523, 1621, 1623,  525, 6804
2524, 1656, 1711, 1725, 1624
2525, 1565, 1575, 1639, 1625
2526, 1630, 1627, 1670,  270
2527, 1628, 1631, 1687, 1760
2528, 1691, 1735, 1629, 6770
2529,  274, 1687, 1631, 1633
2530, 1637, 1632, 1677, 1779
2531, 1736, 1673, 1634,  569
2532, 1647,  509, 1662, 6768
2533, 1779, 1741, 1642, 1637
2534, 1638, 1646, 1738, 1694
2535, 1671, 1639, 1696, 1820
2536, 1626, 1661, 1672, 1640
2537, 1640, 1672, 1695, 1635
2538, 1675, 1641,  527, 1682
2539, 1675, 1691, 6770, 1641
2540, 1642, 1741, 1698,  620
2541, 1686, 1643,  557, 1717
2542, 1693, 6808, 1743, 1829
2543, 1693, 1680, 1644, 6808
2544, 1708, 1752, 1678, 1668
2545, 1646,  635, 1699, 6838
2546, 1662,  509, 1635, 1731
2547, 1647, 6768, 1664, 1602
2548, 1648,  526, 1551, 1553
2549, 1649, 1545, 1549, 6774
2550, 1754, 1702, 1650,  663
2551, 1891, 1651, 1689, 6811
2552,  594, 1655, 1651, 1891
2553, 1653, 1685, 1697, 1654
2554,  663, 1650, 1654, 1697
2555, 1711, 1656,  272, 1712
2556, 1681, 6804, 1722, 6876
2557, 1855, 6877, 1841, 1809
2558, 1721, 1660, 1659, 1706
2559, 1728,  510, 1660, 1721
2560, 1672, 1661, 1724, 1837
2561, 1731, 1635, 1695, 1789
2562, 6768, 1788, 2549, 1664
2563, 1710, 1761, 1730, 1663
2564, 2242, 1876, 6803, 1786
2565, 1667, 1715,  529, 1616
2566, 1848, 1137, 2213, 1903
2567, 1668, 1716, 1855, 1708
2568, 1666, 1716, 6774,  526
2569, 1611,  495, 1669, 1726
2570, 1798, 1733, 1730, 1761
2571, 1684, 1671, 1723, 1727
2572, 1723, 1671, 1820, 1810
2573, 1695, 1672, 1837,  530
2574, 1737, 1674, 1791, 1821
2575, 1682,  527, 1645, 1678
2576, 1750, 1772, 1799, 1758
2577, 1777, 1773, 1138, 1825
2578, 6909, 1739,  270, 1670
2579, 1779, 1771,  269, 1741
2580, 1752, 1719, 1682, 1678
2581, 1683, 1679, 1615, 6769
2582, 1753, 1679, 1683, 1718
2583, 1684,  525, 1623, 1625
2584, 2576, 1867, 2246, 2638
2585, 1589, 1686, 1780, 1601
2586, 1687,  274, 1740, 1734
2587, 1709, 1811, 1775, 6817
2588,  606, 1843, 1608, 1892
2589, 1836,  594, 1891, 2248
2590, 1800, 1773, 1751, 6931
2591, 1750, 1758, 1691, 1675
2592, 1692,  271, 1624, 1725
2593, 2408, 2442, 2404, 2470
2594, 1820, 1696, 1790,  524
2595, 1781, 1698, 1741,  269
2596, 6838, 1793, 1738, 1646
2597, 6817,  273, 1703, 1709
2598, 1712, 1768, 1755, 1711
2599, 1701, 1601, 1780, 1720
2600, 1729, 1713, 1704,  582
2601, 1658, 1681, 6876, 1705
2602, 2210, 6943, 1864, 2211
2603, 1839, 1721, 1706, 1840
2604, 1706, 1659, 1665, 1840
2605, 1707, 1753, 1765, 2263
2606, 1797, 1840, 1665, 1715
2607, 1752, 1708, 6944, 1764
2608, 1752, 1764, 1776, 1719
2609, 1700, 1749, 1745, 1657
2610, 1711, 1755, 1796, 1725
2611, 1768, 1712, 1745, 1805
2612, 1713, 1729, 1766, 1845
2613, 1762, 1736,  569, 1652
2614, 1685, 1746, 2334, 1714
2615, 1867, 1844, 1714, 2246
2616, 1717,  557, 1778, 1824
2617, 1720, 1780, 1815,  545
2618, 1751, 1676, 1690, 6931
2619, 1753, 1718, 1777, 1765
2620, 1772, 1750, 1719, 1776
2621, 1720,  545, 1791, 1674
2622, 1727, 1865, 1722, 6804
2623, 2252, 1870, 2217, 2291
2624, 1838, 1722, 1865, 2445
2625, 1724, 1757, 1807, 1837
2626, 1796, 1897, 6982, 1787
2627, 1669, 1735, 6919, 1759
2628, 6931, 1690, 1726, 1769
2629, 1728, 1808, 1757, 1724
2630, 2243, 1856, 1868, 2281
2631, 1766, 1729, 1826,  583
2632, 1732, 1830, 1794,  688
2633, 1814, 2229, 2212, 6996
2634, 1733, 6909, 1670, 1730
2635,  274, 1694, 1774, 1740
2636, 1775, 1811, 7099, 1851
2637, 1758, 6919, 1735, 1691
2638, 1736, 1762, 1866, 1763
2639, 1793, 6838, 1699, 1784
2640, 6996, 6910, 1739, 1814
2641, 1677,  270, 1739, 6910
2642, 1774, 1694, 1738, 6903
2643, 1774, 6903, 2383, 1816
2644, 1823, 1875, 1742, 1782
2645,  620, 1698, 1742, 4682
2646, 1785, 1693, 1829,  702
2647, 1744, 2239, 1784, 1699
2648, 1749, 1700,  273, 6817
2649, 2264, 1801, 1849, 7094
2650, 1792, 1746,  675, 1835
2651, 2246, 1714, 2334,  676
2652, 1770, 1747, 1795, 1804
2653, 1770, 1882, 1826, 1748
2654, 1729,  582, 1748, 1826
2655, 1749, 6817, 1775, 1890
2656, 1809, 6944, 1708, 1855
2657, 1844, 1899,  663, 1697
2658, 2260, 6794, 1754, 2313
2659, 1725, 1796, 1787, 1692
2660, 2302, 1859, 2252, 2387
2661, 2218, 1860, 2253, 2301
2662, 1759, 6919, 1901, 1902
2663, 1726, 1669, 1759, 1769
2664, 1734, 1850, 1760, 1687
2665, 1761, 1710, 1767, 1833
2666, 1763, 1866, 2241, 1873
2667, 1819, 1778,  557, 1673
2668, 1854, 1812, 1764, 6944
2669, 1140, 1772, 1776, 7050
2670, 2263, 1765, 1877, 7214
2671, 1845, 1766, 1863,  570
2672, 1798, 1761, 1833, 1869
2673, 1805, 1745, 1749, 1890
2674, 1849, 1768, 1805, 2220
2675, 1902, 2262, 1769, 1759
2676, 1799, 1772, 1140, 1853
2677, 1718, 1751, 1773, 1777
2678, 1776, 1764, 1812, 7050
2679, 1824, 1778, 1879, 2244
2680, 1779, 1677, 6910, 1771
2681, 1781, 1832, 1813, 1782
2682, 1818, 1599, 1609, 1884
2683,  275, 2471, 2412, 2413
2684, 2404, 1785,  702, 2330
2685, 6816, 6803, 1880, 2255
2686, 1788, 6844, 1888, 2549
2687, 1807, 1860,  530, 1837
2688, 1887, 1789, 1802, 2222
2689,  523, 2306, 1861, 1821
2690, 1889, 1791,  545, 2569
2691, 1821, 1791, 1889,  523
2692, 1878, 1831, 1794, 1883
2693, 6903, 1738, 1793, 2443
2694, 1834, 1792, 1878, 2230
2695, 1881, 1795, 1836, 2237
2696, 1796, 1755, 1801, 1897
2697, 2214, 6982, 1897,  293
2698, 1797, 1848, 1903, 1840
2699, 1901, 2236, 2208, 1139
2700, 1800, 2262, 2223, 1852
2701, 1138, 1773, 1800, 1852
2702,  293, 1897, 1801, 2264
2703, 1801, 1755, 1768, 1849
2704, 1860, 2218, 1802,  530
2705, 2225, 1803, 1861, 2306
2706, 1859, 1810, 1870, 2252
2707, 1804, 2247, 1882, 1770
2708, 2220, 1805, 1890,  292
2709, 1856, 1807, 1757, 1868
2710, 7049, 1854, 6944, 1809
2711, 1756, 1723, 1810, 1859
2712, 1870,  524, 1803, 2217
2713, 7099, 2303, 2235, 7189
2714, 1853, 1140, 1885, 2232
2715, 1832, 1781,  269, 1871
2716, 1823, 1874, 2305, 2254
2717, 1862, 1814, 1739, 6909
2718, 2609, 2359, 2249, 2314
2719, 1817,  294, 1833, 1767
2720, 1817, 1767, 1787, 6982
2721, 1895, 1806, 1818, 1884
2722, 1819, 1763, 1873, 1906
2723, 1906, 1879, 1778, 1819
2724, 1810, 1820,  524, 1870
2725, 6844,  531, 6918, 1888
2726, 6809, 6852, 6844, 1788
2727, 1138, 1852, 7235, 1886
2728, 1886, 2227, 1825, 1138
2729, 6816, 2255, 1872, 1827
2730, 1743, 1786, 1827, 1829
2731,  508, 1876, 1664, 2549
2732, 1830, 6849, 1883, 1794
2733, 1830, 1732, 1898,  689
2734, 1847, 1874, 1813, 1832
2735, 1833,  294, 2226, 1869
2736,  676, 2334, 1834, 4671
2737, 2248, 2308, 2237, 1836
2738, 1838, 1864, 6876, 1722
2739, 1903, 2240, 1839, 1840
2740, 2263, 1848, 1797, 1707
2741, 1705, 6876, 1864, 6943
2742, 2210, 1141, 1841, 6943
2743, 1857, 1842, 1894, 2340
2744, 6805, 1858, 2421, 4672
2745, 6805, 1893, 1843,  606
2746, 1866, 1845,  570, 2241
2747, 1762, 1713, 1845, 1866
2748, 2295, 1846, 2214, 2371
2749,  294, 1817, 1846, 2221
2750, 1874, 1847,  268, 2305
2751, 7094, 1849, 2220,  292
2752, 7099, 1811, 1850, 2303
2753, 1851,  292, 1890, 1775
2754, 1885, 1140, 7050, 2231
2755, 2283, 2224, 2296, 2377
2756, 1854, 7049, 7141, 2216
2757, 6877, 1855, 1716, 1666
2758, 1868, 1757, 1808, 1905
2759, 1856, 2253, 1860, 1807
2760, 1857, 2340,  651, 2380
2761, 1884,  650, 2256, 1895
2762, 2421, 1858, 2290, 2485
2763, 1859, 2302, 2228, 1756
2764, 2217, 1803, 2225, 2285
2765, 2280, 2212, 2229, 2331
2766, 1865, 1756, 2228, 2445
2767, 1838, 2445, 7051, 1142
2768,  664, 2259, 1867, 2576
2769, 2282, 2226, 2355, 2372
2770, 1798, 2238, 1900, 1733
2771, 2212, 1871,  269, 1771
2772, 2511, 2341, 2386, 2456
2773, 1873, 2241, 2422, 2261
2774, 1906, 1873, 2261,  558
2775, 2227, 7236, 1877, 1825
2776, 1883, 6932, 2230, 1878
2777, 2396, 1879, 1906,  558
2778, 2244, 1879, 2396, 2327
2779, 2255, 1880, 2266,  507
2780, 2258, 1881, 2237, 2406
2781,  583, 1826, 1882, 2478
2782, 6932, 1883, 6849, 2407
2783, 7305, 7140, 2216, 2367
2784, 2292, 2374, 2356, 2298
2785, 2222, 1802, 2218, 2287
2786, 2349, 6852, 1887, 2222
2787, 2549, 1888, 2332,  508
2788, 2517, 1889, 2569, 6911
2789, 1893, 6811, 1689, 1843
2790, 6855, 2248, 1891, 6811
2791, 1702, 1754, 6794, 1894
2792,  651, 2340, 1894, 6794
2793, 1785, 2404, 2442, 1898
2794, 2313, 1899, 2259, 2342
2795, 2250, 1900, 2238,  295
2796, 1902, 1901, 1139, 2209
2797, 2236, 1758, 1799, 2224
2798, 1839, 2240, 1905, 1808
2799, 2311, 7076, 7077, 1904
2800, 1734, 1740, 1904, 7077
2801, 1905, 1136, 2281, 1868
2802, 1924, 2344, 2274, 1938
2803, 1908, 1923, 4915, 2275
2804, 1396,  118, 1936, 1909
2805, 1395, 1394, 1935, 1910
2806, 1911, 1933, 2269, 2768
2807, 1934, 1911, 2768,  727
2808, 1912, 1932, 2493, 2347
2809, 1391,  114, 1931, 1913
2810, 1390,  113, 1930, 1914
2811, 1389,  112, 1929, 1915
2812, 1388, 1387, 1928, 1916
2813, 2270, 1917, 1926, 2345
2814, 2769, 1927, 1917, 2270
2815, 2494, 1918, 1943,  719
2816, 1383,  107, 1942, 1919
2817, 1925, 1919, 2593,  718
2818, 1922, 1920, 2127,  713
2819, 1937, 1921, 1397,  119
2820, 2271, 1944, 1922,  713
2821, 1944, 1923,  104, 1378
2822, 1387,  111, 1927, 1928
2823, 1394,  117, 1934, 1935
2824,  729, 1937, 1909, 2495
2825, 2506, 2593,  717, 2434
2826,  107, 1382, 1938, 1942
2827,  109, 1384, 1939, 1943
2828, 1380,  105, 1940, 1941
2829, 2497, 1946, 1960,  732
2830, 1949,  733, 2276, 1962
2831, 1946, 2497, 2352, 1961
2832,  731, 1959, 1948, 2279
2833, 1949, 1961, 2352,  733
2834, 1951, 1964, 2277,  736
2835, 1965, 2353, 2499, 1952
2836,  740, 2766, 1956, 1969
2837, 2354, 1957, 1970,  741
2838, 1971,  742, 2278, 1958
2839, 5047, 1976, 1958, 2278
2840, 1959,  731, 2755, 1947
2841, 4782, 1963,  734, 3105
2842, 1519,  233, 1962, 1963
2843, 1966, 1952, 2499,  737
2844,  738, 1967, 1953, 4948
2845, 1968, 1954, 4991,  739
2846,  740, 1969, 1955, 4990
2847,  741, 1970, 1956, 2766
2848, 1971, 1957, 2354,  742
2849,  746, 4893, 4875, 4884
2850,  747, 1981, 1975, 4949
2851, 1976, 5047, 5225, 1977
2852, 4760, 6822, 6761, 5225
2853, 1978, 1972, 6761,  744
2854,  745, 1979, 1973, 3464
2855, 1980, 1974, 4893,  746
2856, 1981,  747, 2086, 6758
2857, 5901, 1982, 5437, 5254
2858, 4797, 6759, 1984,  429
2859, 5405, 1983,  430, 5438
2860,    8, 1368, 1984, 6759
2861, 2104,  287, 4905, 2015
2862,  134, 1411, 1986, 2103
2863, 1460,  178, 2150, 1988
2864, 2003, 2123, 4833,  817
2865, 5835,  851, 6014, 6201
2866,  151, 1430, 1990, 2122
2867,  496, 4903, 2112, 1991
2868,  141, 1419, 1992, 2111
2869,  140, 1418, 1993, 2110
2870, 2197, 6020, 6775, 2058
2871, 1506,  221, 2194, 1995
2872,  226, 1511, 1997, 2200
2873, 4906, 1998, 2142, 1347
2874, 2143, 1346, 4869, 2000
2875, 1451,  170, 2141, 1999
2876, 2144, 1345, 4839, 2042
2877, 2041, 2148, 4840, 1341
2878, 2146, 2002, 6021, 1343
2879, 2089, 2124, 4870,  783
2880, 1428,  149, 2119, 2004
2881, 1427,  148, 2118, 2005
2882, 1426,  147, 2117, 2006
2883, 4911, 2006, 2117, 1021
2884,  147, 1425, 2007, 2117
2885,  146, 1424, 2008, 2116
2886,  145, 1423, 2009, 2115
2887,  144, 1422, 2010, 2114
2888,  143, 1421, 2011, 2113
2889, 1416,  138, 2107, 2012
2890,  687, 5210, 4705, 5024
2891, 1415,  137, 2106, 2013
2892,  674, 4791, 4557, 4537
2893, 1414,  136, 2105, 2014
2894, 4871, 2014, 2105,  649
2895,  133, 1410, 2016, 2102
2896,  132, 1409, 2018, 2101
2897,  131, 1408, 2020, 2100
2898, 2155, 1335, 4912, 2023
2899,  130, 1407, 2022, 2099
2900, 2156, 1334, 4872, 2025
2901,  129, 1406, 2024, 2098
2902, 2157, 1333, 4834, 2027
2903,  128, 1405, 2026, 2097
2904, 2158, 2027, 4834, 1332
2905, 1403,  126, 2094, 2028
2906, 2031, 2160, 6028, 1330
2907, 1402,  125, 2093, 2030
2908, 2033, 2161, 4835, 1329
2909, 1401,  124, 2092, 2032
2910, 2035, 2162, 4873, 1328
2911, 1400,  123, 2091, 2034
2912, 4899, 2034, 2091, 1292
2913, 1328, 6766, 2163, 2035
2914,  123, 1399, 2036, 2091
2915,  122, 1398, 2038, 2090
2916,  192, 1474, 2039, 2165
2917, 1459,  177, 2149, 2040
2918, 2148, 2041, 1458,  176
2919, 2145, 1344, 6021, 2002
2920, 1450,  169, 2140, 2043
2921, 1449,  168, 2139, 2044
2922, 1448,  167, 2138, 2045
2923, 1447,  166, 2137, 2046
2924, 1446,  165, 2136, 2047
2925, 1445,  164, 2135, 2048
2926, 1444, 1443, 2134, 2049
2927, 2133, 2050, 6017, 1355
2928, 4836, 2051, 2131, 1357
2929, 2132, 1356, 6017, 2050
2930, 4874, 2052, 2130, 1358
2931, 4900, 2053, 2129, 1359
2932, 1438,  158, 2128, 2054
2933,  228, 1513, 2056, 2202
2934,  225, 1510, 2057, 2199
2935,  224, 1509, 2058, 2198
2936, 1505,  220, 2193, 2059
2937, 1504,  219, 2192, 2060
2938, 4913, 2060, 2192,  354
2939,  219, 1503, 2061, 2192
2940,  218, 1502, 2062, 2191
2941,  217, 1501, 2063, 2190
2942,  216, 1500, 2064, 2189
2943,  215, 1499, 2065, 2188
2944,  214, 1498, 2066, 2187
2945,  213, 1497, 2067, 2186
2946,  212, 1496, 2068, 2185
2947, 1494,  210, 2182, 2069
2948,  593, 4621, 4625, 4620
2949, 1493,  209, 2181, 2070
2950, 1492,  208, 2180, 2071
2951, 1491,  207, 2179, 2072
2952, 4907, 2072, 2179,  511
2953,  207, 1490, 2073, 2179
2954,  206, 1489, 2074, 2178
2955,  205, 1488, 2075, 2177
2956,  204, 1487, 2076, 2176
2957,  203, 1486, 2077, 2175
2958,  202, 1485, 2078, 2174
2959,  201, 1484, 2079, 2173
2960,  200, 1483, 2080, 2172
2961, 1481,  198, 2169, 2081
2962, 5847, 6026,  884, 5675
2963, 1480,  197, 2168, 2082
2964, 1479,  196, 2167, 2083
2965, 1478,  195, 2166, 2084
2966, 4901, 2084, 2166,  782
2967,  195, 1477, 2085, 2166
2968,  156, 1435, 2087, 2127
2969,  155, 1434, 2088, 2126
2970,  154, 1433, 2089, 2125
2971, 5844,  418, 6022, 6206
2972, 1404,  127, 2095, 2096
2973, 2104, 1985, 4936,  287
2974, 5555, 5313, 5842,  700
2975, 1417,  139, 2108, 2109
2976, 1429,  150, 2120, 2121
2977, 5832, 1354, 6011, 6199
2978, 1443,  163, 2133, 2134
2979, 2143, 1998, 4906, 1346
2980, 2144, 2000, 4869, 1345
2981, 5845, 1342, 6024, 6208
2982, 1456,  175, 2146, 2147
2983, 2152, 1987, 4930, 1338
2984, 2153, 2017, 4976, 1337
2985, 2154, 2019, 4984, 1336
2986, 2155, 2021, 4938, 1335
2987, 2156, 2023, 4912, 1334
2988, 2157, 2025, 4872, 1333
2989, 1468,  186, 2158, 2159
2990, 1331, 6028, 2160, 2029
2991, 2164, 2037, 4898, 1327
2992, 2086, 2085, 1477,  194
2993, 5843,  952, 6023, 6207
2994, 1482,  199, 2170, 2171
2995,  605, 4631, 4626, 4629
2996, 1495,  211, 2183, 2184
2997, 1507,  222, 2195, 2196
2998, 1994, 1190, 6020, 2197
2999, 2201, 1996, 4896, 1325
3000, 2206, 2205, 1365,    5
3001,  463, 2684, 2777, 4748
3002,  281, 2783, 2780, 3095
3003, 2610, 2520, 2207, 2783
3004, 2288, 2208, 2283, 2373
3005, 1139, 2208, 2288, 2284
3006, 2284, 7134, 2209, 1139
3007, 2512, 7411, 7319, 7318
3008, 1809, 1841, 1141, 7049
3009, 1864, 1838, 1142, 2211
3010, 2229, 1814, 1862, 7045
3011, 2280, 2341, 1871, 2212
3012, 2298, 2415, 2213, 1137
3013, 2343, 2240, 1903, 2213
3014, 2289,  293, 2264, 2384
3015, 7321, 2295, 2371, 2538
3016, 2290, 2215,  621, 2309
3017, 1141, 2210, 2339, 2293
3018, 2231, 7140, 7305, 2297
3019, 2291, 2217, 2285, 2361
3020, 2287, 2218, 2301, 2362
3021, 7094, 2424, 2384, 2264
3022, 2372, 2355, 7152, 2449
3023, 2460, 2363, 2349, 2222
3024, 2370, 2299, 2378, 2440
3025, 2296, 1853, 2232, 2369
3026, 2423, 2375, 2235, 2303
3027, 1850, 1734, 7077, 2303
3028, 2306, 2364, 2727, 2225
3029, 2374, 7297, 2310, 2464
3030, 2228, 7052, 7051, 2445
3031, 2250, 7045, 1862, 1900
3032, 2294, 2250,  295, 7098
3033, 6973, 2477, 7112, 2320
3034, 2297, 1106, 2418, 2300
3035, 2377, 2296, 2369, 2467
3036, 7134, 1852, 2223, 2209
3037, 2233, 2370, 7504, 2464
3038, 2235, 2375, 2455, 2304
3039, 7189,  292, 1851, 7099
3040, 2236, 1901, 6919, 1758
3041, 2282, 2357, 1869, 2226
3042, 1136, 1905, 2240, 2343
3043, 2242, 1602, 1664, 1876
3044, 2358, 2281, 1136, 2385
3045, 2243, 1135, 2253, 1856
3046, 2569, 2657, 2649, 6911
3047, 2657, 1824, 2244, 2649
3048,  606, 2245, 1858, 6805
3049, 2654, 2630, 2638, 6995
3050, 2479, 2307, 2390,  596
3051, 2478, 1882, 2247, 2403
3052,  607, 2308, 2248, 6855
3053, 2249, 1816, 2383, 2314
3054, 2311, 2249, 2359, 7076
3055, 7090, 2447, 2360, 2331
3056, 2251, 2329, 2402, 2405
3057, 2392, 2387, 2252, 2291
3058, 2301, 2253, 1135, 2382
3059, 2551, 2631, 2381, 2457
3060, 2329, 2255,  507, 2417
3061, 2312, 2256, 1857, 2380
3062, 2416, 2480, 2258, 2406
3063,  595, 1881, 2258, 2336
3064, 2286, 2260, 2313, 2342
3065,  651, 6794, 2260, 2397
3066, 2261, 2422, 2409, 2335
3067, 2262, 1800, 6931, 1769
3068, 1137, 1848, 2263, 7214
3069, 2337, 2265, 2411, 2474
3070,  570, 1863, 2265, 2337
3071, 2346, 2267,  722, 2398
3072, 2323, 2268, 2673, 2590
3073,  726, 2324, 2768, 2269
3074, 2270,  720, 2325, 2769
3075, 2351, 2271,  713, 2435
3076, 2274, 2344,  716, 2350
3077,  714, 2321, 2275, 4915
3078,  715, 2275, 2321, 2594
3079, 2319, 2276,  733, 6810
3080, 2318, 2277,  735, 2596
3081, 2317, 2278,  742, 2433
3082, 2280,  296, 2386, 2341
3083, 2447, 7090, 2294, 7098
3084, 2541, 2481, 2436, 2611
3085, 2438, 2282, 2372, 2539
3086, 2284, 2288, 2373, 2378
3087, 2284, 2378, 2299, 7134
3088, 2361, 2285, 1143, 2461
3089, 2558, 2397, 2486, 2632
3090, 2397, 2260, 2286, 2486
3091,  293, 2289, 2371, 2214
3092, 7139, 2211, 1142, 7051
3093, 2297, 7305, 2367, 1106
3094, 2357, 2368,  295, 2238
3095, 7321, 2704, 2365, 2295
3096, 2369, 2232, 2498, 1105
3097, 2450, 2415, 2623, 2612
3098, 2299, 2370, 2233, 7235
3099, 2300, 2498, 2232, 1885
3100, 2454, 2535, 2379, 2333
3101, 2302, 2366, 7052, 2228
3102, 2384, 2424, 7246, 2628
3103, 2304, 7290, 7189, 2235
3104,  268, 2315, 2381, 2305
3105,  267, 2985, 2551, 2457
3106, 2307, 2479, 2403, 2247
3107, 6972, 2658,  608, 2308
3108, 2308,  608, 2406, 2237
3109, 2309, 2602, 2485, 2290
3110, 2309,  621, 2254, 2631
3111, 2310, 2227, 1886, 2451
3112, 6920, 2312, 2380, 2444
3113, 2342, 2259,  664, 6993
3114, 2486, 2286, 2573,  652
3115, 2616, 2609, 7075, 2740
3116, 2468, 2315, 2389, 2490
3117, 2457, 2381, 2315, 2468
3118, 2316, 1871, 2341, 2511
3119, 2511, 2391, 2234, 2316
3120, 2317, 2510, 2598,  743
3121, 6819, 2394, 2353,  736
3122, 2595, 2319, 2508, 6839
3123,  734, 2276, 2319, 2595
3124, 6880, 2410, 6920, 2484
3125, 3034, 6946, 2410, 6880
3126,  715, 2594, 2591, 2674
3127, 2504, 2322, 2591, 6814
3128, 2322, 2504, 2429,  716
3129, 2590, 2588,  762, 6859
3130, 2323, 2503, 2428,  728
3131, 2588, 2324, 2501,  762
3132, 2427, 2502,  720, 2400
3133, 2587,  721, 2589, 6847
3134, 2500, 2326, 2587, 6847
3135, 2500, 2425,  722, 2326
3136, 2244, 2327,  546, 2649
3137, 2512, 7318, 2601, 2560
3138, 2402, 2329, 2417, 2725
3139, 2472, 2532, 2537, 2470
3140, 2331, 2229, 7045, 7090
3141, 1888, 6918, 2465, 2332
3142, 2436, 2526, 2706, 2611
3143, 2734, 2419, 2327, 2396
3144,  558, 2261, 2335, 7095
3145, 2336, 2258, 2480, 7036
3146, 2409, 2474, 2531, 3104
3147, 2411, 2265, 2414, 2446
3148, 2412, 1784, 2239, 2413
3149, 2420, 7062, 2488, 2577
3150, 6993, 2573, 2286, 2342
3151, 2400, 2345, 2494, 5054
3152, 2399, 2347, 2493, 5055
3153,  728, 2401, 2495, 2348
3154, 6852, 2349,  531, 6844
3155, 2460, 2222, 2287, 1134
3156, 2350,  716, 2429, 2507
3157, 2434, 2350, 2507,  752
3158, 2351, 2873, 2430,  714
3159, 2352, 2497, 6813, 2393
3160, 2355, 2221, 2365, 7152
3161, 2449, 2534, 2539, 2372
3162, 2374, 2292, 7236, 7297
3163, 2357, 2282, 2438, 2368
3164, 2385, 1136, 2343, 2450
3165, 2436, 2358, 2385, 2526
3166, 2544, 2524,  319, 2745
3167, 2469, 7179, 7178, 2382
3168, 1134, 2287, 2362, 2557
3169, 2550, 2364, 2463, 2635
3170, 7292, 7152, 2365,  317
3171, 2339, 2328, 7244, 2458
3172, 2438, 2705, 7166, 2368
3173, 2368, 7166, 7098,  295
3174, 2369, 1105, 2441, 2467
3175, 2373, 2283, 2377, 1104
3176, 2289, 2453, 2538, 2371
3177, 2373, 1104, 2516, 2378
3178, 2356, 2374, 2750, 1102
3179, 7244, 2540, 7187, 2458
3180, 7139, 7051, 7052, 2376
3181, 2312, 6920, 2410, 2219
3182, 2471, 2528, 2443, 2412
3183, 2415, 2450, 2343, 2213
3184, 2526, 2385, 2450, 2612
3185, 2462, 2386,  296, 2544
3186, 2391, 2511, 2456,  297
3187, 7167, 7199, 7187, 2540
3188, 2388, 2266, 2332, 2465
3189, 7036, 2546, 2390, 2336
3190, 2986, 1108, 2392, 2489
3191, 2393, 2515, 2431, 6810
3192, 2352, 2393, 6810,  733
3193, 2394, 6819, 2432, 2514
3194, 2394, 2514, 4880, 6820
3195, 2513, 2395, 2599,  776
3196, 7095, 2734, 2396,  558
3197, 2486,  652, 6966, 2632
3198, 2398,  722, 2425, 4664
3199,  758, 4664, 2861, 7000
3200, 2859, 4786, 6795,  760
3201, 4786, 2399, 5055, 6795
3202, 2863, 4785,  754, 2760
3203, 2427, 4785, 2863,  755
3204, 2401,  728, 2428, 4663
3205, 2405, 2402, 2466,  703
3206, 2472, 2405,  703, 2532
3207, 2330, 2251, 2405, 2472
3208, 2416, 2406,  608, 2572
3209, 2654, 6995, 2567,  677
3210, 2230, 2655, 4671, 1834
3211, 2475, 2408, 2470, 2537
3212, 2442, 2320,  689, 1898
3213, 2474, 2411,  571, 2531
3214, 6946, 2413, 2239,  636
3215, 2478, 2476, 2338,  583
3216, 2476, 2671, 2414, 2338
3217, 2491, 2480, 2416, 2659
3218,  507, 2452, 2473, 2417
3219, 2418, 2536, 2498, 2300
3220, 2483,  546, 2564, 7119
3221, 2420, 2577, 2661, 2578
3222, 2566, 2421, 2485,  622
3223, 4665, 4672, 2421, 2566
3224, 2304, 2455, 7123, 2424
3225, 2482, 7329, 7245,  315
3226, 2501, 2426,  761, 2607
3227, 2502, 2427,  755, 6864
3228,  763, 7014, 2428, 2503
3229, 2508, 2431,  768, 2581
3230, 2318, 2509, 2432, 6819
3231, 4955, 2506, 2592,  753
3232,  748, 2873, 2351, 2435
3233, 2454, 2541, 2611, 2798
3234, 2695,  291, 2624,  290
3235, 2314, 2383, 2437, 2718
3236, 7166, 2627, 2447, 7098
3237, 2535, 2620, 2439, 2379
3238, 2370, 2440, 1103, 7504
3239, 2471,  275, 2553, 2528
3240, 2558, 2583, 2444, 2397
3241, 6920,  637, 2586, 2484
3242,  571, 2411, 2446, 2559
3243, 2901, 2627, 7221, 3021
3244, 7122, 2542, 7007, 2568
3245, 2375, 2423, 7076, 2448
3246, 7504, 2797, 7434, 2464
3247, 2473, 2452, 2529, 2644
3248,  316, 2538, 2453, 7328
3249, 2289, 2384, 2628, 2453
3250, 2328, 2211, 7139, 7244
3251, 2454, 2798, 1101, 2535
3252, 2541, 2454, 2333, 2481
3253, 2457, 2468, 2543,  267
3254, 7319, 2293, 2339, 2458
3255, 2465, 2459, 2545, 2388
3256, 6918, 2363, 2459, 2465
3257, 2574, 2460, 1134, 2730
3258, 2552, 6976, 2827, 2983
3259, 2544,  296, 2360, 2524
3260, 2664, 2548, 2728,  320
3261, 2562, 2645, 2714, 2797
3262, 2584, 2466, 2663, 7222
3263, 1104, 2622, 2556, 2516
3264, 1104, 2377, 2467, 2622
3265, 2490, 2389,  297, 2563
3266, 2585, 2543, 2468, 2490
3267, 7232, 2469, 2525, 1100
3268, 7179, 2469, 7232, 2708
3269, 2626, 2537, 2532, 2723
3270, 2477, 6973,  690, 2605
3271, 2475,  690, 6973, 2408
3272, 2671, 2476, 2527,  584
3273, 2567, 2477, 2605, 3077
3274, 2554, 2479,  596, 2653
3275, 2479, 2554, 2527, 2403
3276, 2999, 7036, 2480, 2491
3277, 2481, 2333, 2243, 2281
3278, 2697, 2482,  315, 2720
3279, 2651, 2699, 7299, 7176
3280, 2487, 3034, 2669, 2662
3281, 2571, 2487, 2662, 2748
3282,  275, 2413, 2487, 2571
3283, 7023, 6993,  664, 7062
3284, 2986, 2489, 2522, 3063
3285, 2563,  297, 2548, 2664
3286, 2659, 2416, 2572, 2741
3287, 2493, 1932,  725, 5055
3288, 5054, 2494,  719, 5414
3289, 7167, 2496, 2618, 1107
3290, 6813, 2497,  732, 2597
3291, 2395, 2354,  741, 2599
3292,  756, 2608, 2500, 6847
3293, 6864, 2606, 6815, 2502
3294, 2429, 2504,  751, 2957
3295, 6862, 2600, 2505, 2430
3296, 2594,  750, 6814, 2591
3297, 6869, 2957, 2866, 7011
3298, 2580, 2509,  770, 2871
3299, 2579, 2510,  777, 2681
3300, 7205, 2598, 2510, 2579
3301, 1106, 2367, 7411, 7526
3302, 2513,  776, 6998, 2774
3303, 6971, 4880, 2514, 2772
3304, 2770, 2515,  767, 4016
3305, 2523, 2516, 2556, 7382
3306, 2875,  247, 2857,  641
3307, 2879,  488, 2785, 2882
3308,    1, 2520, 2882,    2
3309, 2461, 2552, 5347, 2522
3310, 2685, 2830, 2645, 7382
3311, 2562, 2523, 7382, 2645
3312, 2525, 2439, 2620, 2698
3313, 2718, 2624,  291, 2314
3314, 2437, 2443, 2528, 2718
3315,  532, 2633, 2529, 2545
3316, 2644, 2712, 7079, 2710
3317,  546, 2483, 2565, 2649
3318, 2635, 2530,  522, 2911
3319, 2807, 2641, 2717,  572
3320, 3120, 3104, 2531, 2716
3321, 2723, 2642, 2810, 2839
3322, 2475, 2537, 2626,  690
3323, 2647, 3101, 2533, 2536
3324, 2418, 1106, 7526, 2625
3325, 2634, 2753, 2625, 7526
3326,  316, 2621, 7321, 2538
3327, 2539,  318, 2705, 2438
3328, 2366, 2540, 2376, 7052
3329, 2542, 2448,  314, 7007
3330, 2675, 2543, 2744, 2822
3331,  596, 2390, 2546, 2646
3332, 2693, 2636, 2547, 2666
3333, 2548,  297, 2456, 2637
3334, 2911,  522, 2803, 7159
3335, 2827, 2726, 1144, 2892
3336, 2619, 2602, 2551, 2985
3337, 2631, 2551, 2602, 2309
3338, 2983, 2827, 2892, 3067
3339, 2653, 2700, 2849, 2702
3340, 2527, 2554, 2614,  584
3341, 2644, 2710, 2555, 2473
3342, 2725, 2555,  506, 2663
3343, 2848, 2708, 7232, 1100
3344, 2561,  464, 2684,  463
3345, 2392, 1108, 2570, 2387
3346, 2664,  320, 2838, 2722
3347, 2564, 2419, 2721, 7215
3348, 2651, 7119,  547, 2828
3349, 2648, 2565, 2483, 7176
3350, 2735, 4665, 2566, 2660
3351, 2576, 2638, 2630, 2488
3352, 2567, 6995, 7112, 2477
3353, 2657, 2569,  545, 1815
3354, 2749, 2570, 1108, 2805
3355, 2701, 2748, 2662,  276
3356, 6966,  652, 2575, 5115
3357, 2812,  638, 4770,  639
3358,  676, 6995, 2638, 2246
3359, 7112, 6995, 2655, 2407
3360, 2732, 2661, 2577, 2713
3361,  653, 2575, 2578, 2661
3362, 7023, 2578, 2575,  652
3363, 2773, 2580, 2871, 7004
3364, 2580, 2773, 2678,  771
3365, 2870, 2581, 2771,  804
3366, 2581, 2870, 6839, 2508
3367, 2781, 2582, 2875, 6807
3368, 2444, 2583,  637, 6920
3369, 2584, 7222, 2742, 2746
3370, 2642, 2584, 2746, 2810
3371, 7011, 2866, 2691,  786
3372, 2586, 3011, 2669, 2484
3373, 2769, 2589,  721, 1927
3374, 2503, 2323, 2590, 6859
3375, 4955,  753, 5080, 4658
3376, 2593, 1919, 1942,  717
3377, 2594, 2321, 2505,  750
3378, 2595, 6791, 3105,  734
3379, 3182, 2596,  735, 4782
3380, 2515, 2597, 6962,  767
3381, 3113,  778, 3019, 3184
3382, 2869, 2600, 6871, 5395
3383,  750, 2505, 2600, 2869
3384, 2601, 1107, 7196, 2617
3385,  622, 2485, 2602, 2619
3386, 2604, 2858, 5193, 2764
3387, 2604, 2764, 2689,  763
3388, 2847, 2668, 2752,  691
3389, 6864, 2688, 2761, 2606
3390, 2606, 2761, 4961, 2860
3391, 2607,  761, 2686, 2757
3392, 2858, 2607, 2757, 5193
3393, 2608, 2758, 2687,  757
3394, 7075, 2609, 2314,  291
3395,  281, 2679, 2610, 2783
3396, 6796, 2610, 2679, 2779
3397, 2706, 2526, 2612, 2696
3398, 2813, 1133, 2730, 2613
3399, 2730, 1133, 7217, 2574
3400, 2614, 2702, 2885, 2778
3401, 7006, 2703, 2990, 2615
3402,  337, 2821, 2918, 7027
3403, 2932, 2834,  313, 6860
3404, 2927, 2851, 7196, 2711
3405, 2851, 2926, 2826, 2715
3406, 2956, 2749, 2805, 2967
3407, 7318, 7187, 7199, 2601
3408, 2743, 2815, 2985,  267
3409, 2698, 2620, 2707, 2852
3410, 7394, 2709, 2621, 2877
3411, 2621, 2709, 2704, 7321
3412, 7371, 2521, 2920, 2853
3413, 2623, 2356, 1102, 2694
3414, 2528, 2553, 2624, 2718
3415, 2705, 7221, 2627, 7166
3416, 2818,  318, 2719, 2905
3417, 2628, 7329, 7328, 2453
3418, 2704, 2709,  317, 2365
3419, 4743, 2806, 2917, 3056
3420, 2630, 2654, 2843, 2665
3421, 2632, 4770,  638, 2558
3422, 2693, 2893,  532, 2636
3423, 2633, 2712, 2644, 2529
3424, 2715, 2634, 7499, 2617
3425, 2753, 2912, 2647, 2625
3426, 2636,  532, 2545, 2459
3427, 2842, 2697, 2720, 3084
3428, 2568, 2639,  315, 7122
3429, 1143, 2727, 2640, 6976
3430, 2726, 2640, 2550, 7061
3431, 2716, 2641, 2807, 2916
3432, 2531,  571, 2641, 2716
3433, 2723, 2839, 2752, 2626
3434, 2754, 2643, 2722, 2897
3435,  298, 2585, 2643, 2754
3436, 1071, 2714, 2645, 2830
3437, 2682, 2533, 3101, 1073
3438, 2831, 2733, 2648, 7216
3439, 2649, 2565, 2731, 6911
3440, 3008, 2650, 2734, 7095
3441, 2721, 2650, 3008, 7259
3442, 2483, 7119, 2651, 7176
3443,  584, 2614, 2778, 7078
3444, 2739,  572, 2717, 2652
3445, 2665, 2843, 2713, 2577
3446, 4671, 2655, 6995,  676
3447, 2816, 2656, 2729, 2806
3448,  318, 2539, 2656, 2719
3449, 2308,  607, 6883, 6972
3450, 2660, 2566,  622, 6981
3451, 2973, 3072, 2840, 7415
3452, 3072, 2491, 2659, 2840
3453,  622, 2619, 2736, 6981
3454, 2767, 2658, 2919, 7060
3455,  506, 2737, 7222, 2663
3456, 2742, 7222, 2737, 3071
3457, 2548, 2637, 7262, 2728
3458, 2666, 7251, 2856, 2693
3459, 2666, 2547, 2574, 7217
3460, 2748, 2724, 2667, 2571
3461, 2747, 2668, 2847, 2899
3462, 2605,  690, 2668, 2747
3463,  276, 2662, 2669, 3011
3464, 5401, 4969, 4673, 6821
3465, 2670, 2755,  731, 5132
3466, 2671,  584, 7078, 2652
3467, 2835, 2675, 2822, 2889
3468, 2583, 2558, 2804, 2676
3469, 2846,  276, 3011, 2900
3470, 3252, 7065, 3320, 3655
3471,  254, 2520, 2610, 6796
3472, 6869, 2680,  752, 2507
3473, 2521, 2441, 2682, 2920
3474, 2683, 2793,  472, 2782
3475, 2685, 7418, 2960, 2830
3476, 7382, 2556, 7398, 2685
3477, 3777,  790, 7183, 7184
3478, 2765, 7014, 2864, 2942
3479,  642, 3022, 2876, 2690
3480, 3095, 2780, 2876,  643
3481, 7011,  786, 3103, 2763
3482, 3084, 2720, 2821,  337
3483, 2934, 2906,  338, 3036
3484, 7252, 2939, 2824, 7177
3485, 2800, 2881, 1102, 2750
3486, 2809, 2801, 2706, 2696
3487, 2720,  315, 2639, 2821
3488, 1100, 2525, 2698, 2817
3489, 2828, 7302, 2998, 2933
3490, 7299, 2699, 2811,  521
3491, 3074,  597, 3366, 3306
3492, 2700, 3366,  597, 2849
3493, 4842, 5303,  277, 6806
3494, 2990, 2703, 3038, 2918
3495, 7221, 2705,  318, 2818
3496, 7398, 7416, 7418, 2685
3497, 2706, 2801, 2953, 2611
3498, 2802, 2981, 1101, 2798
3499, 2898, 2852, 2974, 3288
3500, 7178, 7179, 2557, 2362
3501, 2708, 2848, 2813, 2613
3502, 2629, 2814, 7298, 7272
3503,  506, 2555, 2710, 2836
3504, 2617, 7196, 2851, 2715
3505, 2712, 2633, 7177, 2824
3506,  533, 7079, 2712, 2824
3507, 2843, 2896, 3012, 2713
3508, 2844, 2841, 2714, 1071
3509, 2797, 2714, 2841, 7434
3510, 2943,  559, 2997, 2991
3511, 2904, 7344, 2972, 7385
3512, 7239, 2842, 3084, 3125
3513, 7259, 2850, 7215, 2721
3514,  290, 2667, 2724, 3110
3515, 2635, 2911, 7061, 2550
3516, 2727, 1143, 2285, 2225
3517, 2831,  521, 2959, 2803
3518, 7176, 7299, 7216, 2648
3519, 2729, 2629, 7272, 2806
3520,  522, 2530, 2731, 2733
3521, 6911, 2731, 2530, 2517
3522, 4665, 2735, 6972, 6883
3523, 2619, 2985, 2815, 2736
3524,  609, 2910, 2738, 2999
3525, 2738, 2910, 7258, 2829
3526, 2739, 2652, 7078, 2778
3527, 3142, 3041, 4843, 3232
3528, 2740, 3166, 2834, 2616
3529,  291, 2695, 2740, 7075
3530,  623, 2938, 2741, 7161
3531, 2741, 2938, 2840, 2659
3532, 2746, 2742, 2820,  704
3533, 2835, 2935, 2743, 2675
3534, 2754, 2936, 7173,  298
3535, 2744, 2845, 2929, 2822
3536, 7340, 7339, 2854, 2984
3537, 2810, 2746,  704, 7405
3538, 2899,  678, 3087, 2747
3539, 2804, 2558,  638, 2812
3540, 2826, 2753, 2634, 2715
3541, 2826, 7621, 2912, 2753
3542, 4458,  795, 4462, 4476
3543, 2608,  756, 2860, 2758
3544, 2759, 7143, 2861,  757
3545, 5403, 3554, 2760,  754
3546, 3532, 6984, 3554, 5403
3547, 2758, 2860, 4961, 6902
3548, 2949, 2762, 2865, 2952
3549, 2858, 2604, 6859,  762
3550, 3100,  798, 3177, 4706
3551, 4663, 2765, 2942,  764
3552, 4673, 2766,  740, 6821
3553, 2275,  715, 1940, 1908
3554, 2869, 2603, 6814,  750
3555, 6948, 5017, 7012, 7013
3556, 3948, 3982,  802, 3887
3557, 2951, 2772, 2872,  807
3558,  772, 6971, 2772, 2951
3559, 7116, 3978, 4014, 4798
3560, 3326, 3018, 2775, 7224
3561, 5395, 7012, 2603, 2869
3562, 6929, 6872, 2776,  785
3563, 6790, 5046, 6861, 6862
3564, 4897, 6767, 5046, 6790
3565, 3041, 3142, 2778, 2885
3566, 6796, 2964, 2879,  254
3567, 6807, 2875,  641, 2825
3568, 2690, 2781, 6812,  642
3569, 2884, 2782,  472, 4693
3570, 2561, 2782, 2884,  464
3571, 2855, 2784,  376, 2961
3572, 2962, 2786,  279, 4654
3573, 3319,  334, 3384, 6799
3574,  334, 2790, 2788, 3384
3575, 4677, 5049, 3026, 2792
3576, 2789, 2791, 4707,  278
3577, 2883, 2792, 3026,  311
3578, 1371,   14, 2792, 2883
3579, 4842, 2794,  288, 5303
3580, 2796, 3033, 4727,  288
3581,   15, 1372, 2795, 2796
3582, 2464, 2310, 2451, 2233
3583, 2797, 7504, 1103, 2562
3584, 2694, 1102, 2881, 2799
3585, 3088, 4667, 2887, 1070
3586, 2800, 2930, 2971, 2881
3587, 3131, 3029, 3039, 3487
3588, 2981, 2923, 2707, 1101
3589, 2803, 2959, 2993, 7159
3590, 2900,  277, 5303, 2846
3591, 3031, 2956, 2967, 3057
3592, 7293, 2814, 2629, 7257
3593,  339, 2917, 2806, 7272
3594, 2916, 2807, 2925, 3024
3595,  623, 7161, 2808, 2908
3596, 2809, 2799, 2902, 7450
3597, 7450, 1069, 7552, 7449
3598, 2810, 7405, 7406, 2839
3599, 2933, 2992, 2811, 2699
3600, 1133, 3059, 2979, 7251
3601, 7059, 2935, 2968, 2908
3602, 4743,  340, 2816, 2806
3603, 2719, 2656, 2816, 2904
3604, 2922, 2817, 3004, 3061
3605, 2909, 2901, 3021, 3035
3606, 3021, 7221, 2818, 2905
3607, 2931, 3062, 7517,  342
3608, 2895,  320, 7340, 2931
3609, 2889, 2822, 2929,  299
3610, 7252, 7177, 2893, 3000
3611, 6812, 3023, 2955,  642
3612, 2640, 2726, 2827, 6976
3613, 2700, 2646, 2829, 3366
3614, 3044, 2960, 7418, 1072
3615,  455, 4800, 2832, 2958
3616,  313, 2834, 3166, 3043
3617, 2751, 2448, 7076, 2359
3618, 6860,  313, 3147, 3001
3619, 2935, 2835,  266, 2968
3620, 2710, 7079, 2867, 2836
3621, 3101, 2837, 2966, 1073
3622, 3308, 7512, 7406, 7405
3623,  691, 2752, 2839, 2944
3624, 2881, 2971, 2887, 2799
3625, 2977, 2906, 2842, 7239
3626, 2843, 2654,  677, 2896
3627, 2744,  298, 7173, 2845
3628, 2847,  691, 2928, 2899
3629, 2848, 3005, 3130, 2813
3630, 2849, 2903, 2885, 2702
3631,  559, 2943, 7259, 3008
3632, 2991, 2894, 7303, 2943
3633, 1074, 2926, 2851, 2927
3634, 2852, 2707, 2923, 2974
3635, 7371, 2853, 2921, 1072
3636, 3116, 4648, 4680, 7480
3637, 7262, 2854, 7339, 2728
3638, 5193, 2757, 5027,  797
3639, 2859,  761, 2426, 4786
3640, 5388,  758, 5484, 5370
3641,  792, 2946, 7144, 2862
3642, 2952, 2865,  787, 3020
3643,  751, 2691, 2866, 2957
3644,  533, 2945, 2867, 7079
3645, 2888, 2867, 2945, 3370
3646, 6772, 3030, 2965, 6773
3647, 2793, 2868, 6773,  472
3648,  804, 3065, 2914, 2870
3649, 6862, 2430, 2873, 6790
3650, 2934,  316, 2842, 2906
3651, 3186, 2878, 5363,  282
3652,  488, 2879, 2964,  489
3653, 3033, 2880, 3027,  289
3654, 7662, 2971, 2930, 2844
3655, 2882, 2520,  254, 2879
3656, 2965, 4693,  472, 6773
3657, 2888, 3370, 7383, 3171
3658, 3181, 2888, 3171,  505
3659, 2835, 2889, 3006,  266
3660, 2992, 3052, 2890, 2811
3661, 2959,  521, 2989, 3050
3662, 3059, 1133, 2813, 3130
3663, 7252, 3000, 1132, 7334
3664, 2893, 2693, 2856, 3000
3665, 2991,  560, 2970, 2894
3666, 2998, 7302,  548, 3054
3667, 3003,  342, 7623, 3211
3668, 2895, 3003, 3042, 7348
3669, 3379, 3045, 3311,  665
3670,  321, 3040, 2897, 2978
3671, 2900, 2676, 2804,  277
3672, 2901,  319, 2524, 2627
3673, 2902, 2799, 2887, 4667
3674, 7552, 3563, 3039, 7550
3675, 3244, 2996, 3159,  598
3676, 3041, 2885, 2903, 3051
3677, 2976, 2909, 3035, 7442
3678, 2907, 2986, 3063, 3066
3679, 2987, 2907, 3066, 3048
3680, 2909, 2819,  319, 2901
3681, 3132,  609, 3072, 2973
3682, 7258, 3306, 3366, 2829
3683, 7061, 3049, 1144, 2726
3684, 7061, 2911, 7159, 3049
3685, 3053, 1037, 3165, 3210
3686, 7890, 7891, 3053, 3085
3687, 2871,  770, 2915, 7004
3688, 3182, 2915,  770, 2596
3689,  560, 2991, 2997, 2916
3690, 3056, 2917, 2982, 3198
3691, 3038, 3128, 7027, 2918
3692, 2919, 2658, 6972, 2735
3693, 2920, 2682, 1073, 7480
3694, 2988, 2950, 2830, 2960
3695, 7400, 3154, 7519, 3005
3696, 2974, 2923, 1068, 3336
3697, 3047, 2924, 3018, 3064
3698, 3024, 2925, 3089, 3141
3699, 7590, 3075, 3163, 3119
3700, 2956, 2927, 2711, 2749
3701, 7406, 3220, 2944, 2839
3702, 3032, 2928, 3093, 3155
3703, 1070, 2887, 2971, 7662
3704, 2841, 2844, 2930, 2800
3705, 2984, 2854, 2819, 7419
3706, 2984, 3062, 2931, 7340
3707, 2823,  314, 2932, 6860
3708, 2933, 2998, 3168, 2992
3709, 2877, 2621,  316, 2934
3710, 2815, 2743, 2935, 7059
3711, 2936, 3040, 3145, 3070
3712, 3081, 2937, 3001,  335
3713, 2937,  336, 3038, 2703
3714, 2968, 3079,  623, 2908
3715, 3009, 2938,  623, 3079
3716,  533, 2824, 2939, 3624
3717, 3436, 3499, 3229, 3360
3718, 7143, 2940, 7000, 2861
3719, 2941, 7432, 7298, 2814
3720, 3120, 2997,  559, 3104
3721, 2695, 2833, 3166, 2740
3722, 3013, 2812,  639, 4712
3723,  534, 3370, 2945, 3551
3724,  792, 3016, 7181, 2946
3725, 7127, 7120, 3017, 7233
3726, 3099, 4821, 2948, 7127
3727, 2762, 2949,  753, 2592
3728, 3025, 7751, 3046, 1037
3729,  807, 3209, 3395, 2951
3730, 3178, 2952, 3102, 7026
3731, 2953, 2886, 3029, 2802
3732, 2954, 3107, 7367, 3179
3733, 2955, 3114, 3022,  642
3734, 3044, 1072, 2921, 7591
3735, 2961, 3094, 5011, 6798
3736,  377, 2855, 2961, 6798
3737, 3095, 4993,  282, 5363
3738,  312, 2833, 3110, 3170
3739, 3014, 2964,  253, 3111
3740,  473, 3190, 4693, 2965
3741, 2966, 7686, 3076, 3116
3742, 4843, 3041, 3051, 3267
3743, 1075, 3057, 2967, 2987
3744, 3090,  266, 3006, 3139
3745, 3274, 3076, 7686, 1040
3746, 3068, 2970, 3160, 7413
3747,  548, 2894, 2970, 3068
3748,  340, 4743, 3135, 3058
3749, 3133,  341, 7442, 2972
3750, 5084, 4993, 3095,  643
3751, 3336, 3332, 3288, 2974
3752, 2819, 2909, 2976, 7419
3753, 7348, 3117, 2978, 2838
3754, 2979, 3059, 3126, 3144
3755, 2853, 2920, 7480, 4680
3756, 3055, 2980, 3136, 3219
3757, 2981, 2802, 3029, 3131
3758, 2923, 2981, 3131, 1068
3759, 3259, 7537, 3138,  370
3760, 2983, 3067, 3148, 4659
3761, 1109, 5347, 4659, 3293
3762, 1109, 3063, 2522, 5347
3763, 3149, 3066, 3063, 1109
3764, 2960, 3044, 7675, 2988
3765, 3046, 7675, 3236, 3191
3766, 2890, 3052, 7521, 3167
3767, 7303, 2894, 7301, 2850
3768,  520, 3052, 2992, 3168
3769, 3490, 3123, 2993, 1145
3770, 3049, 7159, 2993, 3123
3771, 3158, 3218, 7451,  370
3772, 2994, 3036, 7229, 3158
3773, 3146, 2995, 3070,  322
3774, 7212, 7213, 2929, 2845
3775, 3077, 2896,  677, 2567
3776, 2998, 3054, 7414, 3168
3777, 1132, 2891, 3060, 7454
3778, 3142, 3080, 2739, 2778
3779, 3089, 3247, 7345, 3225
3780, 3003, 2895, 2931,  342
3781, 3092, 3004, 1067, 3150
3782, 3061, 3154, 7400, 2922
3783, 1099, 3130, 3005, 7519
3784, 3005, 2848, 2922, 7400
3785, 3139,  265, 3153, 3090
3786, 7425, 3162, 3082, 3007
3787,  691, 2944, 3220, 3169
3788, 3104,  559, 2335, 2409
3789, 3300, 3156, 3195,  264
3790,  624, 2938, 3009, 3078
3791, 3010, 3108, 4716, 5476
3792,  488,  489, 3392, 3541
3793,  665, 6980, 3012, 3379
3794, 6806,  278, 4707, 4842
3795,  489, 2964, 3014, 3257
3796, 2914, 3065, 4887, 6893
3797, 3016, 3248, 3097, 7181
3798, 3184,  779, 3325, 6822
3799, 7117, 4037, 3976, 4953
3800, 3605, 3531,  840, 7367
3801,  643, 2876, 3022, 3180
3802, 2825,  641, 6788, 3109
3803,  655, 3322, 3023, 3109
3804, 3075, 2926, 1074, 3164
3805, 7620, 2926, 3075, 7590
3806, 7751, 2913, 2950, 2988
3807,  312, 3170, 3026, 5049
3808, 2724,  289, 3027, 3110
3809, 3028,   11,   10, 5901
3810, 2448, 2751, 2932,  314
3811, 3029, 2886, 7550, 3039
3812, 3031, 1074, 2927, 2956
3813, 4727, 3033,  289, 2701
3814, 2484, 2669, 3034, 6880
3815, 3129,  338, 3086, 3200
3816, 7413, 3160, 7511, 3196
3817, 3042, 3212, 3117, 7348
3818, 3043, 3240, 3147,  313
3819,  678, 3032, 3045, 3379
3820, 3047, 3127, 3112, 2924
3821, 3127, 3047,  813, 3398
3822,  520, 3124, 7521, 3052
3823, 3053, 3210, 7788, 3085
3824, 3025, 2975, 2913, 7751
3825, 7503, 3359, 7414, 3054
3826, 3168, 7414, 3192,  520
3827, 3055, 1038, 3236, 7591
3828, 3135, 4743, 3056, 3216
3829, 4801, 1075, 3143, 3364
3830, 3133, 7452, 3250, 3202
3831, 3126, 3059, 3130, 1099
3832, 3157, 3060, 3144, 7546
3833, 3061, 3004, 3092, 3221
3834, 3154, 3061, 3221, 7459
3835, 3096, 7419,  341, 3408
3836, 3048, 3066, 3149, 1076
3837, 3254,  813, 3047, 3064
3838, 3123, 3439, 1144, 3049
3839, 1110, 3148, 3067, 3228
3840, 3359, 7413, 3196, 3290
3841, 7415,  624, 3078, 7475
3842, 3152, 3132, 2973, 3069
3843, 3217, 3145, 3275, 3353
3844, 3071, 2737, 3181,  505
3845, 3007, 3071,  505, 7425
3846,  299, 3189, 3231, 3073
3847,  265, 3139, 3151, 3284
3848, 3074, 3306, 7346, 3233
3849, 1074, 3031, 3091, 3164
3850, 7590, 2969, 7621, 7620
3851, 3076, 3337, 4648, 3116
3852, 3156, 3078, 3009, 3153
3853, 3090, 3079, 2968,  266
3854, 3080, 3002,  572, 2739
3855,  336, 2937, 3081, 3304
3856, 3082, 3162, 3203,  705
3857,  705, 4709, 2947, 3082
3858, 3234, 3083, 3167, 3523
3859, 3083, 2989, 2890, 3167
3860, 3125, 3084,  337, 3215
3861, 3086, 2977, 3237, 3200
3862, 3141, 3089, 3225,  561
3863, 3091, 7476, 4794, 3164
3864, 3221, 3092, 7595, 1066
3865,  692, 3314, 3093, 3169
3866, 3094,  396, 4668, 5011
3867, 3202, 3342, 3406, 3408
3868, 3096, 3349, 7517, 3062
3869, 7277, 5446, 4819, 7276
3870, 7276, 7181, 3097, 7277
3871, 3838, 3098, 3175, 6902
3872, 3249, 3176, 3098, 3838
3873, 3100, 4706, 5456, 4763
3874, 7026,  822, 3888, 3178
3875, 4741, 3103,  786, 5337
3876,  559, 3008, 7095, 2335
3877,  769, 6791, 2595, 6839
3878,  805, 3251, 4773, 3106
3879, 3190, 3108, 2884, 4693
3880, 3671, 3611,  490, 3187
3881, 3112,  779, 3184, 3019
3882,  743, 2598, 3113, 4760
3883,  778, 3113, 2598, 7205
3884, 4680, 4648, 3136, 2980
3885, 2966, 3116, 7480, 1073
3886, 3276, 3217, 3353,  344
3887,  321, 2978, 3117, 7404
3888, 3541, 4849,  481, 3188
3889,  473, 2965, 3118, 5599
3890, 7590, 3119, 7619, 2969
3891,  505, 3171, 3121, 7425
3892, 3239, 7383, 3307, 7477
3893, 3057, 1075, 4801, 7476
3894, 3228, 3214, 3439, 3365
3895, 3222, 3270, 3380, 3309
3896, 3523, 3167, 7521, 3309
3897, 1099, 3197, 7628, 3126
3898, 7546, 7628, 3197, 7630
3899,  779, 3112, 3127, 3246
3900, 3158, 7229, 3279, 3218
3901,  338, 3129, 7229, 3036
3902, 7452, 3133, 2972, 7344
3903, 3258, 3134, 3300,  264
3904, 3069, 7475,  625, 3152
3905, 3136, 1039, 3286, 3219
3906, 7753, 1036, 7797, 3194
3907, 3193, 7661, 3194, 3691
3908, 2982, 3138, 7537, 3198
3909, 7537, 3259, 3361, 3420
3910, 3156, 3153,  265, 3195
3911, 3285, 7623,  342, 7517
3912, 3260, 3140, 3211, 3397
3913, 3204, 3141,  561, 7514
3914, 3037, 3024, 3141, 3204
3915, 3143, 3230, 3302, 3364
3916, 3122, 4801, 3364, 1042
3917, 3275,  321, 7404, 3382
3918, 3213, 3146,  322, 3294
3919, 3213, 3358, 3461, 7466
3920,  335, 3001, 3147, 3381
3921, 3205, 3148, 1110, 3292
3922, 3293, 4659, 3148, 3205
3923, 3150, 1067, 3224, 3289
3924, 3500, 3289, 1033, 7597
3925, 3231, 3278, 3151, 3073
3926, 3152, 3440, 3227, 3132
3927, 3400, 3430, 3282, 1066
3928, 7519, 3154, 7459, 3207
3929,  679, 7182, 3155, 7201
3930, 7454, 3297, 3229, 1132
3931, 7454, 3060, 3157, 3401
3932, 3115, 2994, 3158,  370
3933, 7511, 3204, 7514, 3273
3934, 3232, 3243,  573, 3161
3935, 3161,  573, 7345, 3247
3936, 3075, 3164, 3403, 3163
3937, 3403, 1041, 3298, 3163
3938, 3191, 3235, 1037, 3046
3939, 3387, 3165, 3208, 3417
3940, 3307, 7383, 3370,  534
3941,  804, 2771, 3320, 7065
3942, 3172, 3321, 3251, 3065
3943, 3347, 3304, 6802, 6800
3944, 3304, 3347, 3226,  336
3945, 3206, 3176, 3249,  825
3946, 3272, 3248, 3176, 3206
3947,  797, 3177, 2764, 5193
3948, 4706, 3177,  797, 5122
3949, 3888, 3465, 3388, 3201
3950, 3318, 7162, 3209, 3179
3951, 4711,  644, 5084, 4722
3952, 2915, 3182, 3015, 6893
3953, 4718, 3183, 3256,  640
3954, 3183, 4718, 5402, 5060
3955, 4876, 3185, 7047,  668
3956, 4585, 4591, 3186,  282
3957, 3231, 3189, 7333,  300
3958, 7213, 3189,  299, 2929
3959, 3190,  473, 4927,  465
3960, 3269, 3191, 3236, 1038
3961, 3270, 3222, 3192, 7527
3962, 7763, 3623, 3691, 1035
3963, 4667, 3193, 7551, 2902
3964, 7738, 7753, 3194, 7661
3965, 3196, 7511, 3273,  549
3966, 3290, 3196,  549, 3592
3967, 3157, 7546, 7630, 1098
3968, 3198,  369, 3216, 3056
3969, 7182,  679, 3305,  666
3970,  372, 3200, 3237, 7053
3971, 3279, 7169,  371, 3330
3972, 3201, 3388, 6925, 3315
3973, 3471, 3406, 3342, 7774
3974, 3133, 3202, 3408,  341
3975, 3452, 3368, 3449,  503
3976, 3160, 3037, 3204, 7511
3977, 3207, 7459, 3282, 3266
3978, 3354, 3208, 3235, 3295
3979, 3340, 7162, 3318, 3356
3980, 1036, 7753, 7738, 7788
3981, 3025, 1037, 3053, 7891
3982, 3093, 3314, 7201, 3155
3983, 3450, 3350,  367, 3486
3984, 3350, 3397, 3211, 7623
3985, 3212, 3042, 3140,  343
3986, 3294,  322, 3217, 3276
3987, 3461, 3484, 3328, 7466
3988, 3214, 3228, 3067, 2892
3989, 3215, 7053, 3237, 3125
3990,  337, 7027, 6945, 3215
3991, 7644, 3265, 3342, 3202
3992, 3216,  369, 7702, 3280
3993, 4645, 3330,  371, 3393
3994, 1038, 3055, 3219, 3283
3995, 7512, 3308, 7544, 3263
3996,  692, 3169, 3220, 3263
3997, 3221, 1066, 3282, 7459
3998, 3223, 3150, 3425, 3355
3999, 3447, 7595, 3223, 3355
4000, 3332, 3352, 3224, 3288
4001, 3515, 3437, 3372, 3312
4002, 3443, 6945, 7027, 3128
4003, 2910, 3227,  610, 7258
4004, 1111, 3338, 3301, 3365
4005, 1076, 3363, 7363, 3230
4006, 3296, 3302, 3230, 7363
4007, 3278, 3231,  300, 7438
4008,  585, 3243, 3232, 4843
4009, 3271, 3333, 7346,  610
4010, 3233,  611, 7457, 3241
4011, 3234, 3303, 4917, 3083
4012, 3191, 3269, 3295, 3235
4013, 7591, 3236, 7675, 3044
4014, 7168, 3268,  371, 7169
4015, 3298, 1041, 3578, 3345
4016, 3119, 3238, 1040, 7619
4017, 3371, 7613, 3444, 7477
4018, 3239, 3121, 3171, 7383
4019, 3240, 3043,  312, 5049
4020, 3310, 3375, 3448, 7347
4021,  598, 3159, 3241, 3310
4022, 3242, 7213, 7212, 7332
4023, 3312, 3376, 3451, 3515
4024,  598, 3512, 7285, 3244
4025,  374, 3173, 3245, 5407
4026, 3246, 3399, 3325,  779
4027, 3372, 7345,  573, 3312
4028, 5394, 3097, 3248, 3272
4029, 3595,  825, 3249, 3663
4030, 3280, 7644, 7534, 3216
4031,  838, 4773, 3251, 3321
4032, 3604, 3252, 3655, 3827
4033, 3604, 3534,  837, 3252
4034, 5119, 5444,  667, 7155
4035, 3539, 3460,  813, 3254
4036, 3649, 3607, 3255, 3326
4037, 3538,  846, 3607, 7431
4038,  641, 2857, 3256, 6788
4039,  625, 3134, 3258, 3316
4040, 3479, 7565, 3361, 3428
4041, 4034, 3260, 3397, 4660
4042, 3507, 3458, 3482, 7782
4043, 1040, 3238, 3261, 3331
4044, 5381, 7614, 5256, 7544
4045, 7512, 3263, 3220, 7406
4046, 3886, 3264, 3387, 3417
4047, 3210, 3264, 1036, 7788
4048, 7644, 3202, 3250, 7534
4049, 3430, 3357, 3266, 3282
4050,  585, 4843, 3267, 3367
4051, 3267, 3051, 3244, 7285
4052, 3268, 3453, 3393,  371
4053, 7168, 3200,  372, 3268
4054, 7527, 3335, 7641, 3270
4055,  519, 3380, 3270, 7641
4056, 7608, 3509, 7609,  626
4057, 3386, 3383, 3272, 3206
4058, 3512,  598, 3310, 7347
4059,  562, 3429, 3390, 3291
4060, 1039, 3337, 3672, 3329
4061, 3337, 3076, 3274, 3672
4062, 3212, 3382, 7404, 3117
4063, 3542, 3382, 3413, 7548
4064, 3294, 3276, 3339, 3434
4065, 3346, 3277, 3427, 7388
4066, 7489, 3346, 3428, 3361
4067, 3284, 3151, 3278, 7420
4068, 3341, 7438, 3580,  301
4069, 3129, 7169, 3279, 7229
4070, 3402, 3265, 7644, 3280
4071, 3391, 3414, 6818, 3281
4072,  482, 3392, 3281, 6818
4073, 3219, 3286, 3351, 3283
4074, 3497, 3423, 1003, 3424
4075, 3195,  265, 3284, 7506
4076, 3349, 3418, 3285, 7517
4077, 3286, 1039, 3329, 3574
4078, 3544, 3520, 3444, 7613
4079, 3287, 3449, 3368, 3203
4080, 7607, 3412, 7648, 3556
4081, 7503, 3068, 7413, 3359
4082, 3291, 3372, 3437,  562
4083, 3338, 3292, 1110, 3301
4084, 3149, 1109, 3293, 4780
4085, 3354, 3295, 3424, 3409
4086, 3363, 7281, 3513, 7363
4087, 1043, 3302, 3296, 7569
4088, 3343, 7862, 7797, 1036
4089, 3691, 3194, 3299, 1035
4090, 3300, 3134, 3078, 3156
4091, 3302, 1043, 3438, 3364
4092, 3303, 3378, 3454, 3377
4093,  679, 3334, 7248, 3305
4094, 4895, 3305, 7248,  680
4095, 3233, 7346, 3333,  611
4096, 3445, 3371, 7477, 3307
4097, 3445, 3307,  534, 7381
4098, 3417, 3208, 3354, 7950
4099, 3308, 4709, 5381, 7544
4100, 3124, 3222, 3309, 7521
4101, 3446, 7285, 3512, 7380
4102, 5649, 7069, 6994, 3311
4103, 3313, 7489, 3361, 3259
4104,  679, 7201, 3314, 3334
4105, 3466, 3315, 6925, 3532
4106, 3374, 7567, 3509, 7608
4107, 3535, 3468, 3317, 3394
4108, 3356, 3318,  840, 3459
4109, 3655, 3320,  803, 3827
4110, 3396,  837, 3467, 3533
4111, 7046, 3323, 7153, 7047
4112,  814, 6986, 3324, 3398
4113, 6822, 3325,  744, 6761
4114,  812, 3649, 3326, 7224
4115, 3327,  847, 3539, 3254
4116, 3328, 7467, 7333, 3242
4117, 3574, 3496, 3351, 3286
4118, 3458, 3331, 3261, 3416
4119, 3352, 3332, 3405, 3419
4120, 3433, 3519, 3652, 3591
4121, 3336, 1068, 3412, 7607
4122, 4648, 3337, 1039, 3136
4123, 3672, 3274, 7772, 3507
4124, 5293, 7505, 3654, 3712
4125, 5073, 3426, 3338, 7505
4126, 3407, 3394, 3340,  841
4127, 3341, 3543, 3422, 7420
4128, 3265,  368, 7774, 3342
4129, 3343, 1036, 3264, 3886
4130, 7895, 3757, 1001, 3576
4131, 7548, 3800, 3629, 3542
4132,  380, 4149, 7388, 3427
4133,  381, 3428, 3346, 7388
4134,  373, 3226, 3347, 3650
4135, 3630, 3686, 3692, 7669
4136, 3350, 3450, 4660, 3397
4137, 3496, 3478, 3423, 3351
4138, 3353, 3275, 3382, 3542
4139, 7950, 3354, 3409, 3493
4140, 3447, 3355, 3522, 3560
4141, 4685, 3772, 3700,  841
4142, 3266, 3357, 1098, 7630
4143, 3501, 7655, 3577, 3682
4144, 3358, 3434,  323, 3461
4145, 7414, 3359, 7527, 3192
4146, 3503, 3360, 3435, 1097
4147, 3630, 7566, 7565,  382
4148, 7281, 3363, 4780, 3362
4149, 7363, 3513, 3442, 3296
4150, 7549, 3377, 3454, 3457
4151, 3517, 4824, 3511,  586
4152, 3521, 4967, 3368, 3452
4153, 3520, 3544,  536, 3474
4154, 3444, 3520, 3369, 7570
4155,  264, 3586, 3373, 3258
4156, 3441, 3373, 3510, 3562
4157, 7608, 3546, 3455, 3374
4158, 3517, 3451, 3376, 4824
4159, 3593, 3456, 3404, 1147
4160, 3378, 3524, 3457, 3454
4161, 3379, 3012, 3087,  678
4162,  519, 3411, 7721, 3380
4163, 3381, 3147, 3240, 4775
4164, 3413,  343, 3344, 3518
4165, 3383,  860, 3432, 3462
4166, 5407,  375, 4753,  374
4167, 3245,  335, 3381, 6799
4168, 3537, 3385, 3469,  880
4169, 3385, 3537, 3609, 4890
4170, 3410, 3388, 3465,  823
4171,  789, 6925, 3388, 3410
4172, 3389,  753, 2949,  788
4173,  550, 3815, 3740, 3677
4174, 3390, 7605, 7514,  561
4175, 3421, 3391,  490, 3530
4176, 3414, 3391, 3421, 6967
4177, 3330, 4645, 3427, 3277
4178,  808, 3535, 3394, 3407
4179, 3394, 3317, 7162, 3340
4180,  772, 2951, 3395, 4778
4181, 3396, 3533, 3602, 4847
4182,  745, 3464, 3399, 3470
4183, 3430, 3400, 1065, 3577
4184, 7628, 7546, 3144, 3126
4185, 1098, 3357, 3401, 3157
4186,  368, 3265, 3402, 7769
4187, 3348, 3402, 3280, 7702
4188, 3403, 3164, 4794, 3622
4189, 3404, 3309, 3380, 7721
4190,  367, 3285, 3418, 7731
4191, 3418, 3349, 3406, 3471
4192, 3489, 3409, 3424, 1003
4193, 7184, 4999, 3727, 3777
4194, 7732, 3433,  518, 3569
4195, 7732, 3480, 3411,  519
4196, 3405, 7607, 3556, 1034
4197, 3414,  483, 4676, 6818
4198, 3490, 3365, 3439, 3123
4199, 7474, 3415, 3490, 1145
4200, 3458, 3416, 1005, 3482
4201, 3493, 3498, 1002, 7950
4202, 3886, 3417, 3576, 1001
4203, 3285,  367, 3350, 7623
4204, 3505, 3571, 7616, 3419
4205, 1033, 3352, 3419, 7616
4206, 7506, 3422,  264, 3195
4207, 3497, 3424, 3295, 3269
4208, 3968, 4723, 7597, 3494
4209, 3355, 3425, 1032, 3522
4210, 3600, 3426, 5073, 1078
4211, 3428,  381, 3481, 3479
4212, 3519, 3592, 3615, 3652
4213, 3429, 3620, 7605, 3390
4214, 3431, 3506, 3435, 3297
4215, 3431, 3401, 3357, 7655
4216, 4853, 3432, 3597, 7464
4217, 7396, 3462, 3432, 4853
4218, 7641, 3433, 7732,  519
4219, 3488, 3573, 3434, 3339
4220, 3436, 1131, 3473, 3499
4221, 3582, 4779, 4885,  574
4222, 3584, 3438, 1043, 3900
4223, 3440, 3152,  625, 7567
4224, 3441, 7609, 3509, 3316
4225, 7569, 3957, 3900, 1043
4226, 6907, 3483, 3476, 6987
4227, 6907,  373, 3650, 3483
4228, 7477, 3444, 7570, 3239
4229, 3529, 3473, 1131, 7481
4230, 7481, 3590, 7381, 3529
4231, 7380, 7515, 3587, 3446
4232, 3446, 3587, 3511, 3367
4233, 3448, 3516, 3492, 7458
4234, 3520, 3474, 7802, 3369
4235,  574, 3515, 3451, 3491
4236, 5000, 7781,  503, 3572
4237, 3452,  503, 7706, 3521
4238, 3536,  372, 7053, 3476
4239, 3393, 3589, 3528, 4645
4240, 3477, 7549, 3457, 1112
4241,  611, 3333, 3455, 7568
4242, 3523, 3456, 1146, 3234
4243, 3698, 3617, 3593, 3564
4244,  874, 4883, 4040, 3459
4245, 4689, 3460, 3539,  847
4246, 3460, 4689, 5044,  814
4247, 3461,  323, 7664, 3484
4248,  827, 4737, 5248, 7397
4249,  826, 5394, 3462, 4737
4250, 3463,  859, 3660, 3386
4251, 5403, 5450, 3466, 3532
4252, 3533, 3467,  871, 3565
4253, 3467,  837, 3534, 3603
4254, 4778, 3468,  773, 5466
4255, 3538, 7431, 3669, 3608
4256,  781, 3613, 3540, 4703
4257, 3471, 7773, 7731, 3418
4258, 7869, 3922, 3954,  996
4259, 4690, 3812, 1131, 3436
4260,  534, 3551, 3529, 7381
4261, 3572, 7802, 3474, 3647
4262, 3474,  536, 7687, 3647
4263, 3514, 3475, 3548, 3790
4264, 3475, 7769, 3559, 7669
4265, 3654, 1111, 3477, 3594
4266, 1003, 3423, 3478, 3555
4267, 3478, 3496, 3558, 3628
4268, 4149, 7471, 4107, 3568
4269, 3814, 3564, 3593, 1147
4270, 3802, 3865, 7777, 3678
4271, 3678, 3479, 3481, 3802
4272, 3641, 1005, 3416, 3579
4273, 3574, 3329, 7782, 1004
4274, 4306, 6942, 3651, 6900
4275, 3570, 3753, 7553, 3637
4276, 3484, 3637, 7467, 3328
4277, 3940,  502, 3880, 4686
4278, 3514, 3790, 7773, 7834
4279, 3563, 7647, 3722, 3557
4280, 3339, 3276,  344, 3488
4281, 3625, 3491, 3547, 7724
4282, 3492, 3614, 3648, 7575
4283, 4683, 3498, 3493, 3575
4284, 3968,  998, 3914, 4018
4285, 7616, 3494, 7597, 1033
4286, 3579, 3495, 1006, 4879
4287, 1004, 3558, 3496, 3574
4288, 1002, 3498, 3639, 3576
4289, 3624, 7334, 3499, 3473
4290, 3499, 7334, 1132, 3229
4291, 3430, 3577, 7655, 3357
4292, 3506, 3501, 3596, 3550
4293, 5067, 7596, 3758, 4817
4294, 3578, 1041, 3645, 3495
4295, 7822, 3503, 1097, 7765
4296, 3504, 3662, 3723, 5380
4297, 3549, 3505, 1034, 3556
4298, 3643, 3505, 3549, 3687
4299, 1097, 3435, 3506, 3550
4300, 7782, 3329, 3672, 3507
4301, 3458, 3507, 7772, 3331
4302, 3362, 3508, 1077, 7281
4303, 3546, 7608,  626, 3667
4304, 7380, 3512, 7347,  599
4305, 1077, 3600, 4190, 5416
4306, 3513, 5416, 5058, 3442
4307, 3790, 3548, 3676, 3632
4308, 3471, 7774, 7834, 7773
4309, 3515,  574, 4885, 3437
4310, 3588, 3375, 7457, 3675
4311, 4034, 3998, 3344, 3260
4312,  706, 7614, 3521, 7706
4313, 3522, 1032, 3561, 3631
4314, 3653, 1112, 3697, 3775
4315, 7066, 7129, 2760, 3554
4316, 3526, 3659, 3553,  808
4317,  808, 3407, 7108, 3526
4318, 3597, 3527, 3718, 5393
4319, 4189,  380, 3528, 4219
4320, 4645, 3528,  380, 3427
4321, 3530, 3670, 3610, 3421
4322, 7067, 6984,  789, 3525
4323, 3603, 3534, 3666,  870
4324, 3468, 3535, 4802,  773
4325, 3589, 6942, 4306,  379
4326, 3552, 3537,  880, 3657
4327,  780, 3324, 6986, 3612
4328, 3613,  781, 4884, 4875
4329, 3392,  482, 4849, 3541
4330,  344, 3353, 3542, 3629
4331, 7764, 4817,  302, 3926
4332,  264, 3422, 3543, 3586
4333, 3544,  535, 3606,  536
4334, 7899, 3616, 4031, 3545
4335, 7568, 3455, 3546, 3646
4336, 3587, 7612,  586, 3511
4337, 7724, 3705, 5006,  575
4338, 3787, 3676, 3548, 3961
4339, 3567, 3790, 3632, 7867
4340, 3549, 7796, 7837, 3687
4341, 3571, 3505, 3643, 3688
4342, 7365, 4644, 7312, 3552
4343, 3704, 7822, 7765, 1096
4344, 3707, 3553, 3659,  774
4345, 4802, 3553, 3707, 4043
4346, 7129, 7128, 3665, 2760
4347, 3575, 3489, 3636, 7878
4348, 3412, 3487, 3557, 7648
4349, 3563, 3557, 3487, 3039
4350, 3722, 7789, 3627, 3557
4351, 1004, 5902, 3618, 3558
4352, 3558, 3618, 3701, 3628
4353, 7566, 3559, 3348, 3420
4354, 3685, 3621, 1065, 3560
4355, 3631, 3561, 3922, 1031
4356, 3561, 1032, 3472, 3958
4357, 3646, 3546, 3667, 7704
4358, 7609, 3441, 3562,  626
4359, 1069, 7551, 3623, 7647
4360, 7876, 1148, 3951, 5260
4361, 3565,  871, 3658, 3720
4362, 3565, 3720, 4921, 7357
4363, 3749, 3634, 3797, 3748
4364, 4660, 3566,  366, 4034
4365,  381, 7388, 4149, 3568
4366, 3640,  401, 7524, 3848
4367, 3569,  518, 3768, 7843
4368, 3845, 3569, 7843, 7844
4369, 3573, 3638,  323, 3434
4370, 3637, 7553, 3729, 7467
4371, 3739, 3858, 3785,  971
4372, 5729, 3858, 3739, 7922
4373, 3494, 7616, 3571, 4803
4374,  502, 3940, 5000, 3728
4375, 7802, 3572,  503, 3449
4376, 3573,  345, 3626, 3638
4377, 3629, 3800, 3750, 3694
4378, 4683, 3575, 3684,  969
4379, 3576, 3639, 3674, 7895
4380, 3577, 1065, 3621, 3682
4381, 1041, 3403, 3622, 3645
4382, 3341,  301, 7596, 3543
4383, 3729, 3580, 7438,  300
4384, 3581, 6900, 3651, 3483
4385, 7778, 4779, 3582, 3625
4386,  599, 7458, 3583, 3724
4387, 3673, 3584, 3878, 1008
4388, 3585, 1042, 3502, 3731
4389,  612, 3516, 3588, 3716
4390, 7568, 3675, 7457,  611
4391, 3589,  379, 4219, 3528
4392, 6942, 3453, 3536, 3651
4393, 4739, 3656, 3709, 7557
4394, 3445, 7381, 3590, 3709
4395, 3591, 3619,  518, 3433
4396,  549, 3273, 3620, 3592
4397, 3615, 3592, 3620, 3429
4398, 3524, 3456, 3593, 3617
4399, 3524, 3697, 1112, 3457
4400, 3712, 3654, 3594, 7691
4401, 3727,  824, 3595, 3663
4402, 3642, 3596, 1064, 3680
4403, 4853, 7464, 5441, 7495
4404, 3719, 3598, 3660,  859
4405, 3661, 3598, 3719, 3679
4406, 4999, 3883, 3715, 7288
4407, 3937, 1078, 5073, 7639
4408, 5058, 5416, 4190, 1044
4409, 3407,  841, 3668, 7108
4410, 3892, 3833,  809, 3601
4411, 3602,  872, 4674, 4847
4412, 3721, 3603,  870, 5123
4413,  839, 3605, 7367, 3107
4414, 4695, 3605,  839, 5286
4415, 3710, 3767, 3606, 3656
4416, 7431, 3607,  845, 3695
4417, 3726, 7530, 7423,  879
4418, 7200, 3609, 7312,  881
4419, 4890, 3609, 7200, 4636
4420,  251, 3835, 3671, 4688
4421, 5040, 3612, 6986, 5574
4422, 3612, 5040, 6933, 4703
4423, 3681, 3614,  612, 3752
4424, 3648, 3614, 3681, 3751
4425,  550, 3615, 3429, 3815
4426, 3652, 3615,  550, 3591
4427, 3639,  968, 7832, 3674
4428,  969, 3761, 3616, 7899
4429, 3775, 3697, 1113, 3829
4430, 3682, 3621, 3730, 1064
4431, 3699, 1006, 3693, 7758
4432, 5048, 5619, 4879, 5433
4433, 7693, 3872, 3705, 7692
4434, 3193, 3691, 3623, 7551
4435, 7763, 3722, 7647, 3623
4436, 7334, 3624, 2939, 7252
4437, 7778, 3625, 7724,  575
4438,  345, 3694, 3754, 3696
4439, 3626, 3755,  346, 3683
4440, 3770, 3732, 3687, 7837
4441, 3741, 7864, 3701,  971
4442, 3628, 4755, 3555, 3478
4443, 3559, 7566, 3630, 7669
4444, 3686, 3630,  382, 3744
4445, 3560, 3522, 3631, 3685
4446, 3797, 3634,  383, 3794
4447, 4739, 3762, 7722, 1130
4448, 3503, 7822, 3633, 4690
4449, 7867, 3566, 3486, 3567
4450, 3702, 3635, 3759, 3808
4451, 3555, 4755, 7878, 3636
4452, 3684, 3575, 7878,  970
4453, 7729, 3753, 3570, 7664
4454, 3638, 7729, 7664,  323
4455, 3706, 3642, 3746, 3806
4456, 3693, 3717, 7757, 7758
4457, 1006, 3495, 3645, 3693
4458, 3716, 7624,  627, 3868
4459, 3647, 7687, 3823, 7743
4460, 3648, 3751, 3788, 3931
4461, 7575,  600, 3743, 3583
4462, 3831, 3773, 3695,  845
4463,  845, 3607, 3649, 3831
4464,  379, 4306, 4278, 4265
4465, 3677, 3619, 3591,  550
4466, 3836, 3653, 3775, 3944
4467, 7505, 5293, 7639, 5073
4468, 3928, 3870, 5366, 4968
4469, 7530, 3657,  880, 3469
4470, 7364, 3725,  914, 4844
4471,  774, 3659, 3714, 3893
4472, 7288, 3723, 3662,  824
4473, 3663, 3249, 3838,  791
4474, 3599, 3664, 3883, 4999
4475, 6984, 7067, 7066, 3554
4476, 3774, 3713,  836, 7204
4477, 7750, 3711, 7792, 3966
4478,  491, 3771, 7157, 3670
4479, 3670, 7157, 5038, 3610
4480, 3671, 3187,  252, 4688
4481, 3673, 1007, 3731, 3502
4482, 3675, 7568, 3646, 7624
4483, 7814, 3745, 3677, 3740
4484, 3479, 3678,  382, 7565
4485, 3802, 3481, 3640, 3848
4486, 5057, 5038, 7157,  492
4487, 3882, 3820, 7611, 7508
4488,  894, 3764,  928, 3734
4489, 3680, 3811, 3746, 3642
4490, 1064, 3730, 3747, 3680
4491, 3682, 1064, 3596, 3501
4492, 3684, 3779, 7858, 7927
4493, 3744,  382, 3678, 7777
4494, 3692, 4019, 3961, 3548
4495,  999, 3643, 3687, 3732
4496, 3689, 3867, 4856, 7238
4497,  857, 3867, 3689, 3769
4498,  969, 3684, 7927, 3761
4499, 3760, 3690, 3813, 4049
4500, 3749, 3796, 3780,  366
4501, 3566, 3634, 3749,  366
4502, 3891, 4992, 7369, 3832
4503, 3773, 3832, 7369, 3695
4504, 3696, 3754, 3789, 3807
4505, 3789, 3847, 7817, 3807
4506, 3697, 3524, 3617, 1113
4507, 3698, 3564, 7876, 3736
4508, 1113, 3617, 3698, 3879
4509, 3700, 3772, 3830, 3889
4510, 3618, 3739,  971, 3701
4511, 3808,  325, 3859, 3809
4512, 3809, 3758, 3702, 3808
4513, 3818, 3768, 3703, 7835
4514, 3704, 3737, 7722, 3762
4515,  587, 5006, 3705, 3872
4516, 7692, 3705, 7724, 3547
4517, 1096, 7765, 3706, 3806
4518,  774, 3980, 4043, 3707
4519, 7557, 3709, 3590, 7481
4520, 4968, 5166, 3710, 1130
4521, 3765, 7703, 3562, 3510
4522,  627, 3966, 3905, 3868
4523, 3763, 3712, 7691, 1079
4524, 3828, 3713, 3774,  835
4525, 3828, 3885, 4952, 3713
4526, 3776,  810, 6969, 3834
4527, 3715,  858, 3723, 7288
4528, 7288,  824, 3727, 4999
4529, 3717, 3585, 3731, 7757
4530, 7507,  893, 4036, 7463
4531, 4036, 7508, 3719,  859
4532, 4745, 3721, 5123, 5162
4533, 4046, 3723,  858, 7322
4534, 3463, 3504, 5380,  859
4535, 7515, 3724, 7612, 3587
4536, 4644, 7283, 4814, 7206
4537, 4644, 7365, 3725, 7283
4538, 3657, 7530, 3726, 7516
4539, 4999, 7184, 7183, 3599
4540, 3778, 7743, 7742, 7676
4541, 7467, 3729,  300, 7333
4542, 3782, 3747, 3730, 3742
4543, 7757, 3731, 1007, 7758
4544, 3851, 7914, 3791, 7936
4545, 4090, 7809, 4128, 4787
4546, 3961, 4019, 3816,  403
4547, 3787, 3915, 3856, 3738
4548, 1007, 3837, 3735, 7758
4549, 1148, 7876, 3564, 3814
4550, 7821, 1095, 3870, 3928
4551, 3738, 3856, 3794,  383
4552, 3632, 3738,  383, 7867
4553, 3874, 3934, 3740, 3815
4554, 4755, 7864,  970, 7878
4555, 3798, 3742, 1031, 3864
4556, 3798, 3843, 3782, 3742
4557, 3743,  600, 3792, 7733
4558, 7777, 3898, 7828, 3744
4559, 3683, 7729, 3638, 3626
4560, 3907, 3708, 7789, 1035
4561, 3840, 3770, 3708, 3907
4562, 3745,  551, 4075, 7824
4563, 3806, 3746, 1063, 3866
4564, 3936, 3890, 3810, 1030
4565, 3861, 3797, 3794, 3912
4566, 3842, 3795, 3750, 3963
4567,  365, 3963, 3750, 3800
4568, 3793, 3752, 3868, 4100
4569, 3759, 3753,  324, 3781
4570, 3754, 3694, 3750, 3795
4571, 3789, 3754, 3795,  364
4572, 7832, 3756, 7895, 3674
4573, 3791, 7937, 3862, 3913
4574, 7855, 3840, 3907, 7852
4575, 3886, 1001, 7862, 3343
4576,  301, 3702, 3758, 7596
4577, 3808, 3759, 3781,  325
4578, 3779, 3684,  970, 3819
4579, 3824, 4769, 3690, 3761
4580, 3812, 3762, 4739, 7557
4581, 3704, 3762, 3633, 7822
4582, 3820, 3764, 3679, 7611
4583, 3884, 3734,  928, 3860
4584, 3873, 7783, 3821,  263
4585, 7792, 3711, 4056,  262
4586, 3853, 7868, 3863, 7933
4587, 3766, 3805, 7933, 3863
4588, 5166, 7766, 3767, 3710
4589,  536, 3606, 3767, 7687
4590, 3814, 3480, 3845, 1148
4591, 3826,  822, 3950, 3895
4592, 3627, 7789, 3708, 7796
4593, 3791, 7914, 1000, 7937
4594, 3835, 3771,  491, 4806
4595, 7147, 3894, 5390, 5598
4596, 3830, 3772,  875, 3943
4597,  835, 3774, 3887, 3983
4598, 5013, 6894, 6969, 6970
4599, 2761, 3777,  791, 4961
4600, 7676, 3881, 3825, 3778
4601, 7858, 3824, 3761, 7927
4602, 3841, 7748, 7663, 3518
4603, 3781,  324, 3733, 4128
4604, 3783, 7797, 7862, 7863
4605, 7863, 3799, 7855, 3783
4606, 7889, 3919, 3993, 7946
4607, 7946, 3993, 7969, 4650
4608, 3952,  406, 4029, 3960
4609, 7687, 3767, 7766, 3823
4610, 4653, 3871, 7734,  614
4611, 3847, 3789,  364, 3975
4612,  363, 3919, 7889, 7817
4613, 7773, 3790, 3567, 7731
4614, 3801, 7937, 1000, 3799
4615, 4957, 7745, 7733, 3792
4616, 3752, 3793, 4129, 3681
4617,  404, 3912, 3794, 3856
4618, 3869, 3855, 3960, 7871
4619, 3920, 3909, 3869, 7871
4620, 3757, 3801, 3799, 7863
4621, 3998, 3841, 3518, 3344
4622, 3756, 3862, 7937, 3801
4623, 7841, 3870, 1095, 7892
4624, 3852, 3804, 3863, 7868
4625,  998, 4803, 3804, 3852
4626, 7914, 3851, 3732, 3770
4627, 4920,  966, 7933, 3805
4628, 3807, 3784, 3755, 3696
4629, 3758, 3809,  302, 4817
4630, 3810, 3890, 7913, 3811
4631, 1063, 3746, 3811, 7913
4632, 7481, 1131, 3812, 7557
4633, 7826,  935, 3924, 7716
4634, 3874,  562, 4855, 7699
4635, 3816, 3686, 3744, 7828
4636, 1046, 3817, 4361, 4351
4637,  973, 7842, 4670, 4106
4638, 7842, 7829, 5195, 4670
4639, 4002, 3818,  517, 4050
4640, 3989, 3896, 3818, 4002
4641, 5392, 7858, 3779, 7825
4642, 3741, 3819,  970, 7864
4643, 4033, 3981,  928, 3764
4644, 3994, 3923, 4136,  303
4645, 4820, 3822,  937, 7735
4646, 3823,  537, 7742, 7743
4647, 3977, 3924,  935, 4769
4648, 3977, 4769, 3824, 7799
4649, 3825, 3941, 3880,  502
4650,  822, 3826, 3465, 3888
4651, 7204, 3948, 3887, 3774
4652, 3828,  835, 3984, 3850
4653, 3850,  869, 3885, 3828
4654, 3939, 3879, 1114, 5005
4655, 3829, 4891, 3944, 3775
4656, 3831, 3949, 3875, 3773
4657, 3832,  844, 3844, 3891
4658, 3833, 3892, 4702, 4732
4659, 6894, 5205, 3834, 6969
4660, 1080, 3877, 3836, 3944
4661, 1008, 3917, 3839, 3673
4662, 3837, 7815, 4846, 3735
4663, 3846, 3839, 3917, 4054
4664, 3770, 3840, 1000, 7914
4665, 7663,  365, 3800, 7548
4666,  364, 3795, 3842, 3911
4667, 3843, 3798, 3903, 7928
4668, 1030, 3782, 3843, 3897
4669, 7472, 3844, 7350,  878
4670, 3818, 3896, 7843, 3768
4671, 5301, 5311, 7798,  974
4672,  363, 7817, 3847, 7888
4673, 3802, 3848, 3921,  402
4674, 7968, 3849, 3953, 4065
4675, 3984,  835, 3938,  834
4676,  967, 3913, 3862, 3918
4677, 3913, 3962, 7936, 3791
4678, 7826, 7761, 3813,  935
4679, 3969, 4020, 3914, 7804
4680, 7868, 3853, 3908,  965
4681,  966, 3908, 3853, 7933
4682, 3960, 3855, 3916, 3952
4683, 3857, 3830, 3943, 3988
4684, 5729, 3641, 5619, 3858
4685,  972, 3970, 3858, 5619
4686, 3972, 4088, 4136, 3923
4687,  302, 3809, 3859, 3972
4688,  996, 4135, 3864, 7869
4689, 3902, 3898, 7777, 3865
4690, 3849, 4947, 1063, 7913
4691, 4947, 3946, 3866, 1063
4692, 7750, 3966,  627, 7704
4693, 7870, 3869, 3909, 7807
4694, 3796,  384, 3869, 7870
4695, 3932,  613, 4129, 3793
4696, 3874, 7699, 5733, 3934
4697, 3990, 3875,  811, 5041
4698, 4293, 4314, 1046, 4276
4699, 4314, 1045, 3876, 1046
4700, 5023, 7831, 4701, 1047
4701, 1079, 3877, 7831, 4361
4702, 3882,  893, 3910, 4751
4703, 3820, 3882, 4751,  927
4704,  929, 5066, 4757, 7656
4705,  895, 5393, 3884, 7656
4706, 7426, 4952, 3885, 5214
4707, 7862, 1001, 3757, 7863
4708, 3887,  802, 7015, 3983
4709, 3889,  876, 4700, 7368
4710, 1029, 3953, 3890, 3936
4711, 7472, 4656, 3891, 3844
4712, 3892, 3601, 5010,  842
4713, 3892,  842, 7316, 4702
4714, 5127,  775, 5401, 6821
4715, 3771, 3835, 3894, 7147
4716, 4039, 3986,  857, 3895
4717, 1149, 7918, 7907, 7874
4718, 4062, 1029, 4105, 7977
4719, 7828, 3898,  403, 3816
4720, 3960, 4029, 3899, 7871
4721, 7871, 3899,  385, 3920
4722, 7569, 4894, 4017, 3957
4723, 7707, 4102, 4053, 7708
4724, 5314, 5127, 4990,  739
4725, 3980, 3901, 5314, 5502
4726, 4060,  402, 3921, 4024
4727, 3956, 3902, 4010, 4059
4728, 4097, 4150, 4135,  996
4729, 3904, 5810, 7720, 5012
4730, 7810, 3971, 4001, 3967
4731, 1008, 3878, 3906, 7810
4732, 3907, 1035, 3299, 7852
4733, 3964, 7865,  966, 4920
4734, 4776, 7749, 3920,  385
4735, 7749, 7748, 3909, 3920
4736, 3910, 3979, 4035, 4751
4737, 3927, 3975, 4004, 4092
4738, 3912,  404, 3955, 3929
4739,  403, 3956, 4126, 3915
4740,  384, 3916, 3855, 3869
4741, 3952, 3916,  405, 4011
4742, 7810, 3906, 7838, 3971
4743, 3997, 3918, 7832,  968
4744, 4399, 4387, 3919,  363
4745, 3993, 3919, 4387, 4366
4746, 3958, 3954, 3922, 3561
4747, 7783, 3994, 4182,  262
4748, 7716, 3924, 4768,  900
4749, 3999, 4009, 4974, 7636
4750, 3925, 3999,  537, 3823
4751, 7764, 3926, 7783, 3873
4752, 4133, 3927, 4092,  387
4753, 3974, 7888, 3927, 4133
4754, 3928, 4968, 1130, 7722
4755,  588, 4957, 3930, 5391
4756, 3871,  600, 3931, 7734
4757, 3788, 5406, 7734, 3931
4758,  628, 3932, 3793, 4100
4759, 4027, 4072, 3932,  628
4760, 3934, 5733, 3959, 4101
4761,  843, 4958, 3991, 4733
4762, 3936, 1030, 3897, 4124
4763, 5022, 4923, 1045, 4272
4764, 1078, 3937, 4923, 3600
4765, 7296, 4994,  868, 4916
4766, 3485, 7781, 5000, 3940
4767, 3941,  501, 3996, 4222
4768, 7635, 4799, 3942, 7636
4769, 3987,  875, 4040, 4883
4770, 1062, 5384, 7924, 3946
4771, 7850, 7849, 3946, 7924
4772, 1128, 3925, 3947, 7839
4773, 3982, 3948,  803, 2677
4774, 3949,  812, 3978, 7116
4775, 3875, 3949, 7116,  811
4776, 4037, 7117, 7026, 3102
4777, 3950,  856, 4039, 3895
4778, 7917, 5019, 7909, 7908
4779, 5260, 3951, 7908, 7909
4780, 3856, 3915, 4064,  404
4781, 3995, 3899, 4029,  406
4782, 4005, 3953, 1029, 4062
4783, 4065, 3953, 4005, 4960
4784, 4058, 3954, 3958, 4045
4785, 3955, 4000,  405, 3929
4786, 4059, 7723, 4126, 3956
4787, 3954, 4058, 4007,  996
4788,  967, 4030, 4061, 4012
4789, 7935, 4920, 3805, 7934
4790, 4028, 3965, 4776,  385
4791, 4022, 3962, 4012, 7813
4792, 7865, 4068, 5018, 4021
4793, 3965,  386, 3911, 3842
4794, 4008, 3966, 7792, 7847
4795, 4723, 3968, 4018, 4045
4796, 3968, 3494, 4803,  998
4797, 4015, 3970,  972, 4069
4798, 3970, 4015, 5810, 3904
4799, 4017, 7707, 7838, 3906
4800, 1009, 4001, 3971, 7708
4801, 3859,  325, 4048, 4023
4802, 3973, 7524, 4042, 4071
4803, 4414, 4151,  388, 4308
4804, 7888, 3974, 4399,  363
4805, 4004, 3911,  386, 4055
4806, 3976, 4037, 4696, 7295
4807, 4953, 3976, 5070, 7325
4808, 7716, 4692, 7715, 7826
4809, 3978,  812, 7224, 2681
4810, 4035, 3979,  892, 4081
4811, 7508, 4036,  893, 3882
4812, 4043, 4083,  773, 4802
4813, 4110, 4077, 3981, 4033
4814,  963, 4153, 7811, 4818
4815, 4818, 3860, 3933, 4076
4816, 3982, 2770, 4016,  802
4817, 4747, 3983, 7015, 5116
4818, 7296, 4916, 3984,  834
4819, 3985, 7532, 4147, 4038
4820, 7326, 4339, 4039,  856
4821, 4249, 4339, 7410, 4218
4822, 4883, 5064, 5398, 3987
4823, 5607, 4733, 3990, 5041
4824, 7350, 3935, 3991, 7399
4825, 4164, 4201,  708, 7445
4826, 3992,  707, 4686, 3880
4827,  362, 4344, 4366, 4387
4828, 3926, 3923, 3994, 7783
4829, 4182, 3994,  303, 4239
4830, 4131, 4067, 7872, 4093
4831,  385, 3899, 3995, 4028
4832, 3996,  501, 4041, 4080
4833, 4080, 4041, 7443, 7372
4834,  968, 3639, 3545, 4031
4835, 4030, 3997, 4070, 4086
4836,  366, 3780, 3998, 4034
4837, 4009, 3999, 3925, 1128
4838, 4652, 4000, 4052, 5079
4839, 4144, 4001, 1009, 4175
4840, 5955, 4054, 4001, 4144
4841, 4125, 4050,  516, 4224
4842, 1150, 4066, 4003, 4125
4843, 4092, 4004, 4055, 4237
4844, 4006, 1062, 3946, 4947
4845, 4008, 7847, 4154, 4138
4846, 4138, 4063, 7820, 4008
4847, 7695, 4974, 4009, 7741
4848,  437, 4099, 4010, 4060
4849, 4011,  405, 4000, 4652
4850, 4217, 4196, 4011, 4652
4851, 7813, 4850, 3964, 4022
4852, 4013, 5002, 5316, 4052
4853, 4014, 2774, 6998, 4798
4854, 5810, 4015, 7775,  938
4855, 4777, 4016,  767, 5265
4856, 3971, 7838, 7707, 7708
4857, 4045, 4018,  997, 4058
4858, 4019, 3692, 3686, 3816
4859, 7877, 7912, 7911, 4020
4860, 7857,  931, 4271, 5397
4861, 7865, 4021, 3908,  966
4862, 4022, 3964, 4920, 7935
4863, 7919, 4044,  326, 7966
4864, 4364, 7674, 7653, 4341
4865,  437, 4060, 4024, 4383
4866, 4025, 4111, 4075,  551
4867, 4049, 3813, 7761,  934
4868, 4027,  628, 4082,  629
4869,  386, 3965, 4028, 4131
4870, 4061, 4030, 4086,  933
4871, 4070, 4031, 4049,  934
4872,  962, 4076, 3933, 4032
4873, 4033,  927, 7740, 4110
4874, 4035, 4081, 7717,  926
4875, 5380, 3723, 4046, 7463
4876, 4037, 3102,  821, 4696
4877, 4160, 4147, 7532,  892
4878, 7322, 4856, 4038, 4147
4879,  401, 4073, 4042, 7524
4880, 4048, 4044, 7919, 4023
4881, 4140, 4047,  961, 4173
4882, 7886, 7809, 4090, 7887
4883, 4127, 4089, 4238, 4214
4884, 7943, 4096, 4051, 7911
4885, 4051, 4007, 4058,  997
4886, 7563, 5316, 4657, 7447
4887, 4272, 7576, 4143, 5022
4888, 5881, 5485, 4054, 5955
4889, 4132, 4210, 7959, 4237
4890, 7847, 7792,  262, 4154
4891, 3711, 3765, 3821, 4056
4892, 4007, 4057, 4097,  996
4893, 7723, 4059,  438, 7657
4894, 4084, 4061,  933, 4171
4895, 4105, 1029, 3936, 4124
4896, 4998, 7960, 7965, 4713
4897, 4113, 4082,  628, 4063
4898, 4063,  628, 4100, 7820
4899,  964, 4117, 7912, 7827
4900, 7830, 4176, 5409, 4145
4901, 4145, 7873, 4109, 7830
4902, 7930, 7872, 4067, 4098
4903,  932, 4094, 4068, 4850
4904, 5018, 4068, 4094, 4199
4905, 4106, 7848, 7923,  973
4906, 7923, 7952, 5048,  973
4907,  934, 4116, 4086, 4070
4908,  436, 4383, 3973, 4071
4909, 5425, 5406, 4072, 5382
4910, 4073, 4198, 4108, 4042
4911, 7694, 4118, 4074, 4112
4912,  517, 7824, 4075, 4788
4913, 4076,  962, 4087, 4165
4914, 4818, 4076, 4165,  963
4915, 4119, 4077, 4110, 7740
4916,  961, 4047, 4077, 4119
4917,  927, 4751, 4078, 7740
4918, 7601, 4079, 4041,  501
4919, 4079, 5056, 4766, 7531
4920, 4377, 4080,  709, 7260
4921, 4115, 7498, 4177, 4146
4922, 4266, 4345, 4082, 4113
4923, 5043, 4083,  738, 4948
4924, 4171, 4139,  932, 4084
4925,  932, 4850, 7813, 4084
4926, 4285, 7723, 7657, 4257
4927, 4087,  962, 4091, 4150
4928, 4087, 4150, 4097, 7953
4929,  326, 7973, 4168, 7929
4930, 7967, 4136, 4088, 7920
4931, 4263, 4238, 4089, 4130
4932, 7973, 4089, 4127, 4168
4933, 3781, 4128, 7809,  325
4934,  995, 4150, 4091, 4186
4935, 4132, 4093, 4166, 4180
4936, 5397, 4271, 4286, 5419
4937, 4271, 4250, 7770, 4286
4938, 4057, 4096, 4121, 7961
4939, 3903, 4135, 4150,  995
4940, 7836, 4098,  406, 4196
4941, 4170, 4137, 4099,  437
4942, 4017, 4894, 4102, 7707
4943, 5022, 4143, 1044, 4190
4944, 4103, 1009, 7708, 4053
4945,  939, 7762, 4106, 4670
4946, 5705, 4805, 4108, 6040
4947, 7873, 5019, 7917, 4109
4948, 4109, 1149, 4066, 7830
4949, 4788,  516, 4050,  517
4950, 7659,  563, 5878, 5235
4951, 4063, 4138,  261, 4113
4952, 7498, 4115, 7532, 3985
4953,  933, 4086, 4116, 5014
4954, 4026, 4116,  934, 7761
4955, 4117,  964, 4122, 4121
4956, 4117, 4121, 4096, 7943
4957, 4762, 4179,  564, 4600
4958, 7690, 4074, 4118, 4148
4959, 4220, 4163, 4078,  926
4960, 4202, 7444, 4223,  696
4961, 7444, 4202,  695, 4251
4962, 5066, 4195, 4736, 4757
4963, 4123, 7930, 4098, 7836
4964, 7928, 4157, 3897, 3843
4965, 7964, 4157, 7928, 4186
4966, 7668, 4781, 1151, 4167
4967, 4168, 4191,  327, 7929
4968, 7973,  326, 4044, 4089
4969, 4650, 5108, 3854, 7946
4970, 4130, 7947, 7970, 4263
4971, 7887, 4130, 4089, 4044
4972, 4055, 4093, 4132, 4237
4973, 7978, 4133,  387, 7971
4974, 4165, 4134, 7944,  963
4975, 7535, 4137, 4204, 1176
4976,  438, 4099, 4137, 4169
4977,  898, 4172, 4139, 4759
4978, 4207,  994, 7964, 4186
4979, 5882, 6019, 6062, 5869
4980, 4215, 7896, 4192,  304
4981, 4272, 1045, 4314, 4244
4982, 4175, 4200, 6249, 4144
4983, 5955, 4144, 6249, 5881
4984, 4345, 4266,  260, 4336
4985, 1150, 4176, 7830, 4066
4986, 4145, 5409, 5423, 5383
4987, 4264, 4232,  926, 7717
4988, 4081, 4115, 4146, 7717
4989, 4160,  892, 3979, 7507
4990, 5305, 5606, 5168,  552
4991, 4155, 4107, 7471, 4158
4992, 4193, 7959, 4210, 4253
4993, 4184, 4270, 4247, 4225
4994, 7930, 4152,  407, 7872
4995, 5066,  929, 7811, 4195
4996, 7961, 4153,  963, 7944
4997, 4189, 7274, 4158, 7471
4998, 7956, 4157, 7964, 4156
4999,  994, 7974, 4156, 7964
5000, 4124, 3897, 4157, 7956
5001, 7747, 4197, 4205, 4188
5002, 4161,  441, 7816, 4194
5003, 4196,  406, 3952, 4011
5004, 4195, 4162,  930, 4736
5005,  964, 7827, 5857, 4162
5006, 7921, 4163, 4220, 5025
5007, 4164, 4251, 5410, 4221
5008, 4180, 4166, 4184,  408
5009, 4167, 1150, 4125, 7668
5010, 4127, 7979, 4191, 4168
5011, 4192, 4142, 7929, 4206
5012, 7674, 4170,  437, 4383
5013,  933, 5014, 5408, 4171
5014,  898, 4254, 4246, 4172
5015, 4173,  961, 4187, 4713
5016, 4197, 7747, 4159, 4211
5017, 4200, 7672, 4181,  975
5018, 7672, 4200, 4175, 7577
5019, 4146, 4177, 4989, 7714
5020, 5259, 4224,  516, 4788
5021, 4178, 5168, 5259, 4788
5022, 4118, 7694, 6090, 4179
5023, 4253, 4240, 4216, 4193
5024, 4212, 4273, 4292, 4245
5025, 4239, 7896, 4215, 4211
5026, 7501, 4183, 4218, 7410
5027, 7545, 4248, 4258, 4275
5028, 4270,  407, 4152, 7866
5029, 4252, 4185, 4226, 1117
5030, 4185, 4252, 5409, 4176
5031, 4756, 4187, 4213, 7921
5032, 4371, 4188, 4205, 4384
5033, 7274, 4241, 4236,  400
5034,  304, 4192, 4206, 4914
5035,  408, 4262, 4253, 4210
5036, 4216, 4240, 4229, 7989
5037, 7816, 4815,  442, 7866
5038, 4153, 4122, 4195, 7811
5039, 4209, 4198,  400, 4236
5040, 5018, 7812,  931, 7857
5041, 7812, 5018, 4199, 7760
5042,  975, 4704, 6249, 4200
5043, 3992, 4201, 7631,  707
5044,  708, 4201, 3992, 4222
5045, 4781, 7583, 5734, 4296
5046, 4169, 4137, 7535, 4230
5047,  304, 4384, 4205, 4215
5048, 4188, 4371, 4234, 7643
5049, 4235, 4268, 4311, 4267
5050, 4140, 4173,  994, 4207
5051, 4202, 4208, 4297,  695
5052, 4210, 4132, 4180,  408
5053, 4159, 4182, 4239, 4211
5054, 4272, 4244, 1010, 7576
5055, 4310, 4214, 4233, 4284
5056, 4243, 4142, 4192, 7896
5057, 7984, 4216, 7989, 7988
5058,  441, 4161, 4217, 4962
5059, 4248, 7501, 7500,  890
5060, 4249,  891, 3945, 3986
5061, 4228, 4169, 4230, 7441
5062, 4241, 4219,  379, 4265
5063, 7444, 4251, 4164, 7445
5064, 5427, 4221, 5410,  694
5065, 4358, 4335,  696, 4223
5066, 4208, 4202,  696, 4303
5067, 4224, 5259, 7696, 4203
5068, 4203, 7696, 5693, 7583
5069, 4329, 7986, 4225, 4247
5070, 1117, 4226, 4231, 7579
5071,  896, 7709, 4288, 4319
5072, 7658, 4283, 4657,  439
5073, 4259, 7962, 4309, 4281
5074, 4259, 7988, 7989, 4229
5075, 1176, 4260, 4230, 7535
5076, 4269, 1152, 4295, 4231
5077, 5087, 7898, 7851, 4232
5078, 4263, 4233, 4214, 4238
5079, 7696, 5259, 5168, 5606
5080,  409, 7976, 4277, 7955
5081, 4291, 4234, 4371,  305
5082, 4289,  327, 4191, 7979
5083, 4764, 4236,  399, 7174
5084,  387, 4092, 4237, 7959
5085,  303, 4243, 7896, 4239
5086,  409, 4229, 4240, 7976
5087, 4236, 4241, 4265,  399
5088,  303, 4136, 7967, 4243
5089, 4244, 4314, 4293, 4273
5090, 4245, 7884, 5418, 4889
5091, 4247,  442, 4369, 4329
5092, 4339, 4249, 3986, 4039
5093, 4162, 5857, 7770,  930
5094, 4227, 4250, 4271,  931
5095, 5409, 4252, 1116, 5423
5096, 4262,  408, 7986, 7975
5097, 4816, 4279, 4254,  898
5098, 4334, 4327, 4307, 4279
5099, 4255, 4298, 7390, 4318
5100, 4255, 4318, 5410, 4251
5101, 4307, 4280, 7618, 4256
5102,  897, 7688, 4256, 7618
5103, 4285, 4257, 7658,  439
5104, 4294,  889, 4316, 4258
5105, 4260, 1176, 4287, 7488
5106, 4424, 1210, 4406, 4444
5107, 4233, 4261, 7983, 4284
5108, 4261, 4233, 4263, 7970
5109, 4344, 7982, 4404, 4386
5110, 7776, 4750, 4264, 7714
5111, 4188, 7643, 4174, 7747
5112,  305, 7819, 5169, 7787
5113, 4268, 4289, 4300, 4290
5114, 4290, 4300, 4312, 4299
5115, 7866, 4152, 4194, 7816
5116, 4247, 4270, 7866,  442
5117, 4273, 4293, 4276, 1011
5118, 7625, 7776, 7714, 4989
5119, 4407, 4391, 7916, 4333
5120, 7938, 7975, 7986, 4329
5121, 4822, 7955, 7954,  444
5122, 5053,  399, 4265, 4278
5123, 4325, 4975, 4319, 4280
5124, 7985, 4365, 7982, 4332
5125, 4281, 7987, 4308,  388
5126, 7948, 6665, 7962, 4282
5127, 7564, 4283, 7658, 4257
5128, 4284,  361, 4646,  360
5129, 4310, 4284,  360, 4995
5130, 4085, 4126, 7723, 4285
5131, 7657,  438, 4169, 4228
5132, 4250, 4697,  930, 7770
5133, 4315, 1175, 4321, 7520
5134, 4319, 4288, 7618, 4280
5135, 4300, 4289,  348,  349
5136, 4304, 7904, 4302, 1011
5137, 7925, 7883, 4302, 7904
5138,  890, 7500, 7409, 7408
5139,  889, 5032, 7349, 4316
5140, 5453, 4877, 1118, 7422
5141, 4296, 5734, 5099, 4761
5142, 4303,  696, 4335, 4357
5143, 4297, 4851, 5051, 4274
5144, 5021, 4328, 4350, 4431
5145,  349,  348, 4320, 4356
5146, 4318, 7390,  681, 7433
5147, 5404, 7882, 7883, 7854
5148, 1011, 4276, 7853, 4304
5149, 4326, 4305, 7938,  443
5150, 6756, 4277, 4305, 4326
5151,  862, 4280, 4307, 4327
5152, 6665, 4324, 4309, 7962
5153, 4323, 4311, 7818,  328
5154, 5169, 4267, 4311, 4323
5155, 4313, 4352, 4336,  260
5156, 4313,  260, 7643, 4234
5157, 4315, 4204, 4338, 1175
5158, 4363, 5196, 1175, 4341
5159, 7325, 5070, 4317, 7408
5160, 7401, 4317, 5070, 5443
5161, 7433, 4691, 5375,  694
5162,  694, 5410, 4318, 7433
5163, 7359, 4325, 4280,  862
5164, 3937, 3876, 1045, 4923
5165, 7980, 7972, 4376, 7945
5166, 4320,  348, 7980, 7945
5167, 5164, 4321, 1209, 7362
5168, 5411, 4379, 7719, 4649
5169, 5169, 4323, 7719, 7787
5170, 4388, 4368, 4324, 6665
5171, 4326, 4370, 4390, 6756
5172, 5007, 4374, 4327, 4334
5173,  443, 7938, 4329, 4369
5174, 4330, 4342, 4365, 7985
5175, 4355,  682, 4298, 4774
5176, 7982, 4365,  361, 4404
5177, 4332,  362, 4414, 4308
5178, 4276, 1046, 4351, 7853
5179, 7963, 4407, 1047, 7885
5180, 5007, 4334,  863, 5266
5181, 5029, 4345, 4336, 4467
5182, 4337, 4966, 4409,  259
5183, 7409, 7410, 4339, 7326
5184, 7939, 7875, 4340, 1012
5185, 4382, 4363, 4341, 7653
5186,  361, 4365, 4342, 4646
5187, 7861, 6174, 4392, 4367
5188, 7900, 4340, 7875, 7845
5189, 4344,  362, 4332, 7982
5190,  629, 4082, 4345, 5029
5191, 4360, 4346, 5164, 7456
5192, 4433, 4347,  390, 4421
5193, 4348, 7808, 7737, 4661
5194,  443, 4369, 7808, 4348
5195, 4352,  259, 4381, 7355
5196, 5029, 4451, 5382,  629
5197,  306, 4966, 4353, 4379
5198, 4354,  668, 7154, 5447
5199, 5071, 5063, 4758, 4355
5200, 4758, 5063, 4749, 7156
5201, 4357,  697, 4362, 4378
5202, 7260, 4358, 4223, 4120
5203, 4358, 4397, 4380, 4335
5204, 7845, 4730, 4359, 7900
5205, 5404, 7854, 4359,  976
5206, 7455, 4385, 4360, 7456
5207, 3877, 1080, 4701, 7831
5208, 4395, 4362,  697, 7058
5209, 4412, 4395,  698, 4565
5210,  436, 7653, 7674, 4383
5211, 7987, 7985, 4332, 4308
5212, 4366, 4413, 7969, 3993
5213, 7916, 4391, 7951, 1012
5214, 6174, 7861, 6006, 6422
5215, 4398, 4368,  411, 7791
5216, 4370, 4348, 4661, 7736
5217, 1182, 4390, 4370, 7736
5218, 4291,  305, 7787, 4353
5219, 4431, 4350, 4372, 4375
5220, 4394, 4401, 7310, 4373
5221, 4375, 4405, 4415, 4431
5222, 7879, 4376, 4995, 4400
5223, 4851, 4378, 7315,  683
5224,  710, 4411, 4380, 4397
5225, 4408, 4396,  258, 4564
5226, 7536, 4382, 7653,  436
5227, 4382, 4771, 4389, 4363
5228,  305, 4371, 4384, 7819
5229, 4384,  304, 4914, 7819
5230, 1210, 4360, 4385, 4406
5231, 1243, 4423, 4445, 4460
5232, 7970, 7947,  347, 4413
5233,  411, 6601, 6709, 6452
5234,  411, 4368, 4388, 6601
5235, 1174, 4363, 4389, 7634
5236, 7779, 6754, 7727, 6755
5237, 6756, 4390,  444, 7954
5238, 4793, 4391, 4407, 7963
5239, 4391, 4793, 7957, 5077
5240, 4808, 7940, 6164, 5059
5241, 4808, 4367, 4392, 7940
5242, 4442, 4433, 4421, 4432
5243,  359, 4405, 4393, 7879
5244, 4394,  828, 4419, 4402
5245, 4394, 4402, 7243, 4401
5246,  697, 4380, 4411, 7058
5247, 4565, 4546,  685, 4412
5248, 4543, 4564, 4548, 7172
5249, 4422,  709, 4080, 7372
5250, 7793, 4804, 4410, 4398
5251,  390, 4368, 4398, 4421
5252, 4414, 4399, 3974, 4151
5253, 4432, 4410,  391, 7794
5254, 4400, 4442, 4432, 7794
5255, 7342,  827, 7397,  861
5256, 7310, 4919, 7359, 4373
5257, 4403, 4422, 4694, 7387
5258,  361, 4284, 7983, 4404
5259, 4405,  359, 4416, 4415
5260, 4444, 4406, 4437, 1211
5261, 7916, 1012, 7904, 4304
5262, 4333, 5023, 1047, 4407
5263,  631, 4523, 7261, 4408
5264, 4381, 4396, 4408, 7261
5265, 5061, 4409, 4966,  306
5266,  258, 5061, 5465, 5117
5267, 4410, 4432, 4421, 4398
5268, 4411,  710, 7088, 5120
5269, 4412,  685, 4527, 4427
5270, 7969, 4413,  347, 4650
5271, 4415,  358, 4441, 4431
5272, 4417, 4416,  359, 7794
5273, 5377, 4416, 4417, 4675
5274, 5074, 5613, 5208,  391
5275, 4446, 4436, 4445, 1242
5276, 4434, 4453, 4458,  794
5277, 4694, 4422, 7372,  500
5278, 4385, 1242, 4445, 4423
5279, 4430, 4424, 4444, 4641
5280, 4523, 4468, 7320, 4428
5281, 7355, 4425,  630, 4467
5282, 4426, 7362, 5623, 1241
5283, 4418, 4426, 1241, 4964
5284, 4470, 7084, 4527,  685
5285, 7320, 4468, 7247, 4452
5286, 4439, 4428, 7320,  615
5287, 7441, 4430, 4641, 1177
5288, 4448, 5021, 4431, 4441
5289,  360, 4646, 4433, 4442
5290, 5442, 4434,  794, 5244
5291, 4402, 4419, 4453, 4434
5292, 4669, 4435, 4443,  829
5293, 4455, 4438, 4450, 4459
5294, 4465, 4438, 4455, 4471
5295, 4466, 5412, 5425, 5382
5296,  684, 4429, 4440, 7287
5297, 4435, 4447,  795, 4419
5298, 4444, 1211, 4449, 4641
5299, 4460, 4445, 4454, 4461
5300, 4681, 7223, 4491, 7102
5301, 5172, 5424, 5884, 4463
5302, 1177, 4641, 4638, 4635
5303, 4449, 1211, 4438, 4465
5304, 4459, 4450, 1243, 4474
5305, 4451, 5029, 4467,  630
5306, 4462,  795, 4447, 2756
5307, 7028, 7084, 4470,  672
5308, 1277, 4477, 4461, 4454
5309, 7084, 7028,  671, 4440
5310, 7002, 4456, 4492, 4495
5311, 7384, 4482, 4521, 4457
5312, 4501, 1244, 4679, 1279
5313, 1244, 4455, 4459, 4679
5314, 1278, 4460, 4461, 4810
5315, 4476, 4462,  760, 6846
5316, 1212, 7337, 4465, 4471
5317,  616, 7146, 7145, 4494
5318,  616, 4452, 7247, 7146
5319,  683, 7356, 4765, 7237
5320,  672, 4470, 4517, 4506
5321, 4493, 4498, 4472,  602
5322,  615, 4457, 4472, 4479
5323, 1278, 6890, 4555, 4474
5324, 5412, 4466, 4475, 4479
5325, 4476, 6846, 4481, 4484
5326, 1277, 4436, 4491, 7223
5327, 4486, 1312, 5031, 1313
5328, 4795,  670, 4765, 7356
5329, 4479, 4472, 4498, 5412
5330, 4488, 4496, 4480, 4473
5331, 4480, 4496, 4795, 4478
5332, 4481,  759, 4719, 4484
5333, 6846, 4487, 4499, 4481
5334, 4599, 4521, 4482,  603
5335, 4489, 4483, 4500, 1213
5336, 7028, 4492, 4456,  671
5337, 7002, 4515, 4485, 4456
5338, 4740, 7223, 4681, 5628
5339, 4810, 4486, 1313, 5042
5340,  659, 4566, 4496, 4488
5341, 5008, 4489, 1213, 5385
5342, 4505, 4490, 4501, 1279
5343, 4490, 4505, 4513, 4918
5344, 7102, 4491, 1276, 7081
5345, 7255, 4504, 4512, 4526
5346, 7255, 4526, 7190,  603
5347, 4495,  672, 4516, 6916
5348, 4529, 6916, 4516, 4518
5349, 4566,  659, 4550, 7080
5350,  670, 4795, 4496, 4566
5351,  659, 4488, 4497, 4528
5352, 3871, 4653,  601, 7637
5353, 5412, 4498,  614, 5425
5354,  724, 4854, 4499, 5004
5355, 4502, 1245, 4509, 7478
5356, 4539, 7478, 4525, 1214
5357, 4525, 7478, 4509, 7374
5358, 4510,  602, 4521, 4599
5359, 7145, 7146, 4511, 4531
5360, 7068, 4531, 7005, 4554
5361,  673, 4506, 4530, 6887
5362, 4571, 4508, 4541, 6917
5363, 1280, 4513, 4508, 4571
5364, 1246, 7374, 4540, 4574
5365, 7374, 4509, 7273, 4540
5366, 4536, 4510, 4599, 4590
5367, 4503, 4535, 4881, 4493
5368,  631, 4511, 4468, 4523
5369, 4512,  617, 4519, 4526
5370, 4513, 1280, 4524, 4918
5371,  645, 4528, 4514, 4586
5372,  660, 4640, 4515, 7002
5373, 4634, 4637, 4640,  647
5374, 4518, 4516,  673, 6829
5375, 4530, 4506, 4517, 4544
5376,  661, 4529, 4518, 4954
5377, 4553, 4538,  618, 4684
5378, 4526, 4519,  604, 7190
5379, 4532, 4520, 4536,  590
5380, 6851, 4541, 1314, 6825
5381, 4552, 4540, 7273, 7180
5382, 1245, 4524, 7273, 4509
5383, 1246, 4534, 4525, 7374
5384, 1214, 4525, 4534, 4888
5385, 4583,  604, 4577, 4878
5386, 4651, 4529,  661, 6827
5387, 6887,  686, 4556, 6830
5388, 7039, 7005, 4531, 4511
5389, 4504, 7145, 4531, 7068
5390, 4532, 4570, 4561, 4547
5391, 4545,  589, 4547, 4567
5392, 4558, 4533, 4549, 4559
5393,  658, 4550, 4533, 4558
5394, 1247, 4563, 4551, 4752
5395, 4881, 4535, 5391, 3930
5396, 4590, 4581,  590, 4536
5397, 4714, 4539, 1214, 5233
5398, 4571, 6917, 4735, 4560
5399, 1278, 4810, 5042, 6890
5400, 4530, 4544,  686, 6887
5401, 4546, 4565, 4687, 4950
5402, 5478, 5086, 4950, 4687
5403, 4567, 4547,  577, 4569
5404, 4925, 5454,  257, 5075
5405, 4549,  645, 4572, 4559
5406, 5346, 7048, 5887, 5591
5407, 4571, 4560, 7180, 1280
5408, 4540, 4552, 1281, 4574
5409, 4554, 7005, 5110, 4731
5410,  662, 4954, 4557, 4791
5411,  644, 4711, 4558, 4559
5412, 4560, 4735, 5399, 4971
5413, 4582,  577, 4588, 7375
5414, 4715, 4562, 4574, 1281
5415, 5979, 4562, 4715, 1282
5416, 4687, 4565,  698, 6898
5417, 4592, 4568, 7008, 4619
5418, 7008, 4568, 4519, 4553
5419, 4568, 4592, 4584, 4577
5420, 4569, 7543, 4841,  576
5421, 4576,  590, 4581, 4601
5422, 4570,  578, 4783, 4561
5423, 4579,  645, 4586, 7070
5424, 4742, 4573,  576, 7660
5425, 5391, 4545, 7606,  588
5426, 4550,  658, 5887, 7080
5427, 7156, 4749, 4575, 7048
5428, 4604, 4594,  579, 4609
5429, 4610, 4608, 7070, 4586
5430, 4603, 6924, 4608,  284
5431,  282, 4993, 4580, 4585
5432, 4601,  591, 4594, 4604
5433, 7543, 4569, 4578, 4595
5434, 4494, 7255,  603, 4482
5435, 4583,  603, 7190,  604
5436, 4587, 4584, 4592,  592
5437, 4577, 4584,  591, 4878
5438, 4591, 4585, 6979,  283
5439, 4586, 4514,  646, 4610
5440, 4602, 4587,  592, 4606
5441, 4593, 4589, 4596,  565
5442, 4583, 4590, 4599,  603
5443, 4597, 4598, 6923, 6924
5444, 4619, 4614,  592, 4592
5445, 4595,  564, 4179, 6090
5446, 4617, 7227, 4628, 4622
5447, 4597, 4607, 4688,  252
5448, 4598, 4597,  252, 3111
5449,  552, 4762, 4600, 7354
5450, 4623, 4618,  579, 4602
5451,  283, 7070, 4608, 6992
5452, 4607, 4603,  284, 4970
5453, 4576, 4601, 4604, 4852
5454, 4605, 4593,  565, 4611
5455,  553, 5009, 7354, 4605
5456, 4606,  580, 4623, 4602
5457,  251, 4688, 4607, 4970
5458, 7029, 4609,  579, 4618
5459, 4628, 7227,  565, 4596
5460, 7107, 4616, 7193, 4624
5461, 4611,  565, 7227, 4615
5462, 4612,  284, 4624, 7193
5463, 4611, 4615, 4729, 5163
5464, 4746, 4612, 7193, 4616
5465, 5039, 4612, 4746, 5102
5466, 4613, 4615, 7227, 4617
5467,  593, 4614, 4626, 4631
5468, 4729, 4615,  566, 5194
5469, 4627,  285, 4616, 7107
5470, 5102, 4746, 7158, 7103
5471, 4617, 4622, 4609, 7029
5472, 4699, 4618, 4623, 5078
5473, 4625, 4621,  581, 4655
5474, 4596, 4582, 7375, 4628
5475, 4852, 4622, 4783,  578
5476, 7008, 4633, 6884, 4619
5477, 4634, 4610,  646, 4637
5478, 4627, 7107, 4634,  647
5479, 4632, 4655,  581, 4630
5480,  580, 4606, 4625, 4655
5481, 4626, 4614, 4619, 6884
5482, 4627,  647, 5334, 4813
5483, 4632, 4630,  568, 5477
5484, 4633, 7008, 4553, 4684
5485, 4642, 4639,  882, 4963
5486, 4890, 4636,  847, 3327
5487, 5400, 4638, 4754, 1178
5488, 4651, 4811, 4640,  660
5489, 7206, 4814, 7101, 4643
5490,  881, 7312, 4644, 7206
5491, 7283, 3725, 7364,  915
5492, 5211,  357, 5681, 5746
5493, 4323,  328, 4649, 7719
5494, 4649,  329, 5100, 5411
5495, 4090, 4787,  347, 7947
5496, 5093, 4811, 4651, 6827
5497,  440, 4217, 4652, 5079
5498, 4812,  279, 2789,  278
5499, 5238, 4812, 4712, 6789
5500, 5217,  878, 5129,  912
5501, 5351, 5033,  879, 7473
5502, 5079, 7563, 5197,  440
5503, 4789, 3466, 5450, 5080
5504, 5414, 4658, 5080, 5450
5505, 7736, 5471, 5892, 1182
5506, 5471, 7736, 4661, 7673
5507, 5052, 5050, 4662, 3485
5508, 5685, 2401, 4663,  764
5509, 5388, 2398, 4664,  758
5510, 4672, 4665, 6883,  607
5511, 5508, 5855, 5132, 4666
5512, 5600, 5389, 6771, 5254
5513, 5011, 4668,  397, 5542
5514, 5371, 5300,  830, 5122
5515, 4669, 5371, 5027,  796
5516, 5732, 5455, 5195, 4846
5517, 4672,  607, 1893, 6805
5518, 5127, 6821,  740, 4990
5519, 5319, 4969, 5401,  775
5520, 5137, 4674, 5286,  839
5521,  838, 4847, 4674, 5137
5522, 5372, 5072, 4849,  482
5523, 6818, 4676, 5372,  482
5524, 4775, 4677,  334, 3319
5525, 5215, 4678,  358, 5377
5526, 5592, 4678, 5215, 7600
5527, 5386, 5123,  870, 7426
5528, 4679, 4459, 4474, 4555
5529, 7102, 5109, 5628, 4681
5530, 3545, 4683,  969, 7899
5531, 5134, 5171,  618, 4731
5532, 4956, 5138,  619, 4838
5533, 4685, 3356, 3459, 4040
5534,  707, 5085, 5052, 4686
5535, 6898, 5174, 5478, 4687
5536,  848, 4689,  847, 4636
5537, 4689,  848, 7100, 5044
5538, 7715, 5858, 5158, 4026
5539,  900, 5204, 4692, 7716
5540, 5117, 5203, 4564,  258
5541, 4548, 5454, 4925, 7172
5542,  500, 5112, 5201, 4694
5543, 7387, 5452, 5076, 4403
5544, 5034, 4695,  873, 5345
5545, 5443, 5070, 3976, 7295
5546, 5239, 4698, 5090, 5556
5547, 6882,  580, 4655, 4632
5548,  473, 5599, 5373, 4927
5549, 5462, 5488, 5245, 6085
5550, 7368, 4700, 5104, 7316
5551, 7885, 5352, 7856, 5098
5552, 4702, 7316, 5104, 5631
5553, 4732, 4702, 5631, 5607
5554, 5415, 5230, 5307,  781
5555, 4704,  975, 5209, 5474
5556, 5903, 4704, 5474,  942
5557,  674, 4537, 4705, 5210
5558, 5122,  797, 5027, 5371
5559, 7218, 5246, 7034, 4708
5560, 5381, 4709,  705, 4967
5561,  794, 4484, 4719, 5244
5562, 4558, 4711, 5369,  658
5563,  278, 3013, 4712, 4812
5564, 6789, 4712,  639, 5170
5565, 5233, 1214, 5103, 5872
5566, 7554, 5008, 5385, 1179
5567, 1281, 7219, 5105, 4715
5568, 4716,  465, 5097, 6977
5569, 2958, 3010, 5476, 5089
5570, 5136, 4717, 7225,  916
5571,  882, 4639, 4717, 5136
5572, 4718,  640, 5639, 5402
5573, 4823, 3183, 5060, 6878
5574,  759, 5096, 5252, 4719
5575, 4721,  783, 6792,  784
5576, 4722, 3180,  657, 6895
5577, 3472, 3500, 7597, 4723
5578, 5159,  666, 3305, 4895
5579,  667, 3253, 4724, 7155
5580, 5042, 5165, 4725, 6890
5581,  839, 3107, 4726, 5137
5582, 4728, 5120, 6989, 5154
5583, 5133, 5194,  566, 6953
5584, 5163, 4729,  554, 6177
5585, 3653, 3836, 7691, 3594
5586,  977, 5059, 5242, 7805
5587, 7805, 5577, 4730, 7845
5588, 5134, 4731, 5110,  633
5589, 4733, 5607, 5631,  843
5590, 4735, 1315, 5135, 5399
5591, 4971, 5399, 5069, 7219
5592, 5095, 5253, 7640,  924
5593, 5199, 4750,  925, 7795
5594, 4740, 5628, 5113, 1312
5595, 4741, 7106,  821, 3020
5596, 4573, 4742,  588, 7606
5597, 2904, 2816,  340, 7344
5598, 5155, 4744, 5398,  908
5599,  905, 3658, 4745, 7681
5600, 7158, 4746, 4616,  285
5601, 4747, 5116, 5156, 7203
5602,  834, 3938, 4747, 7203
5603,  454, 5413,  453, 4748
5604, 4575,  670, 4566, 7080
5605, 7795,  925, 4738, 7640
5606, 7851, 7898, 7897,  960
5607, 4752, 5979, 5130, 1247
5608, 5872, 1180, 5589, 5233
5609, 4756,  960, 5258, 7860
5610, 4998, 4756, 7860, 7949
5611, 7656, 4757, 5626,  895
5612, 5061,  258, 4396, 4409
5613,  669, 4331, 4758, 7156
5614, 5051, 5071, 4355, 4774
5615, 7401, 5469, 5114, 7234
5616, 5356, 4816,  898, 4759
5617, 4761, 5099, 5118, 7280
5618, 5167, 4764,  434, 6190
5619, 7356,  683, 7315, 4469
5620, 5112, 4766, 5460,  539
5621, 4767,  378, 5243, 6928
5622, 5980, 5264,  900, 4768
5623, 4770, 5115, 5170,  639
5624, 7536, 5298, 4771, 4382
5625, 5243,  378, 5261, 5302
5626, 5261,  378, 6899, 4772
5627, 4973, 5265,  767, 6962
5628, 5396, 5602,  801, 5116
5629, 4778, 5466, 5083,  772
5630, 5081, 7746, 5241, 7660
5631, 5734, 7583, 5693,  515
5632, 4588, 4561, 4783, 7375
5633, 7840, 4790, 4784, 7806
5634, 5475, 5250, 7754, 4784
5635,  753, 3389, 4789, 5080
5636, 1129, 5366, 4790, 7840
5637, 5475, 7841, 7892, 5240
5638, 5267, 5060, 5402,  654
5639, 6983, 6994, 4792, 5267
5640, 4793, 5098, 7958, 7957
5641, 4478, 4795, 7356, 4469
5642, 1061, 5739, 5384, 5637
5643, 7932, 7850, 7924, 4796
5644, 5319, 5013, 4798, 6998
5645, 7116, 4798, 5358,  811
5646, 7601,  538, 5056, 4079
5647,  454, 2832, 4800, 5361
5648, 7476, 4801, 3122, 4794
5649, 5984, 6063, 5757, 5074
5650, 5705, 5298, 7536, 4805
5651,  436, 4071, 4805, 7536
5652, 5801, 5085, 4807, 5427
5653, 4807, 7631, 4221, 5427
5654,  793, 5442, 5244, 4710
5655, 4809,  827, 7342, 7243
5656, 4813, 5583, 5357, 7104
5657,  285, 4627, 4813, 7104
5658,  915, 5062, 4814, 7283
5659, 7101, 4814, 5062, 5620
5660, 5015,  442, 4815, 5290
5661, 5510, 7529, 7496, 7487
5662,  929, 3860, 4818, 7811
5663, 5446, 5249, 5082, 5088
5664, 7118, 4819,  793, 4710
5665,  936, 3819, 4820, 7735
5666, 5091, 4821, 5449, 7361
5667, 4824,  585, 3367, 3511
5668, 5139, 4828, 1354, 5664
5669, 5140, 4830,  417, 5493
5670, 5141, 4833,  851, 5665
5671, 5149, 4834, 1333, 5503
5672, 5153, 4835, 1330, 5677
5673, 5145, 4836, 1357, 5498
5674, 4956, 4838,  605, 4629
5675, 5144, 4839, 1345, 5497
5676, 5150, 4840, 1342, 6865
5677, 7701, 7694, 4112, 5634
5678, 5303,  288, 4727, 2846
5679, 4844,  914, 5317, 5561
5680, 5263, 7439, 7497, 7581
5681, 5196, 4845, 5426, 1209
5682, 7468, 4848,  924, 7556
5683, 5051, 4851,  683, 7237
5684, 5160, 5092, 7495, 5694
5685, 5092, 7396, 4853, 7495
5686, 5370, 5459, 5003,  723
5687, 5878, 7699, 4855, 5235
5688, 7238,  858, 3715, 3883
5689,  858, 7238, 4856, 7322
5690, 5179, 6785, 5496, 6097
5691, 5184, 6782, 5501, 6101
5692, 5521, 5177, 5764, 6891
5693, 5113, 5182, 5355, 1312
5694,  817, 5494, 5175, 4870
5695,  649, 5532, 5189, 4871
5696, 4877, 5453, 5090, 7579
5697, 3641, 3579, 4879, 5619
5698, 5121, 6820, 4880, 5083
5699, 4881, 3930, 7637,  601
5700, 7379, 4691, 5216, 7378
5701, 3334, 4882,  680, 7248
5702,  782, 4946, 5257, 5307
5703, 5094, 4886, 5447, 7154
5704, 6893, 4887, 7004, 2915
5705, 5448, 5202, 1181, 5283
5706, 4889, 5418, 5576, 5065
5707, 1080, 3944, 4891, 7786
5708, 4892,  410, 7948, 4282
5709, 4892,  409, 7955, 4822
5710, 4893, 1974, 1979,  745
5711, 7876, 5260, 7903, 3736
5712, 4894, 3442, 5058, 4102
5713,  680, 5444, 5119, 4895
5714, 4895, 5119, 7155, 5159
5715,  783, 4721, 5046, 6767
5716, 6841, 6778,  634, 5521
5717, 5611, 1313, 5031, 1347
5718, 7819, 4914, 4267, 5169
5719, 1145, 3050, 4917, 7474
5720, 4975, 4919,  861, 5458
5721, 5463, 5125, 7357, 4921
5722, 7317, 7153, 3323, 4922
5723,  654, 5353, 4924, 5001
5724, 4548, 4564, 5203, 5454
5725, 7547, 5893, 4926, 5473
5726, 5452, 7387, 4694, 5201
5727, 4928, 7754, 5250, 5518
5728, 5461, 5256, 7614,  706
5729, 3262, 4929, 7493,  693
5730, 5544, 6786, 6765,  543
5731, 5545, 6783, 6763,  479
5732, 5543, 6832, 6777, 1054
5733, 6825, 5271, 5339, 6851
5734, 1325, 5550, 5280, 4942
5735, 1327, 5554, 5281, 4943
5736, 4946,  747, 4949, 5257
5737,  686, 4544, 4950, 5086
5738, 5683, 4951, 5341, 7092
5739, 6967, 4951,  483, 3414
5740,  870, 3666, 4952, 7426
5741,  662, 4871, 5189, 6784
5742, 4956, 4684,  618, 5138
5743,  588, 4742, 7744, 5309
5744, 7733,  587, 3872, 3743
5745, 4958,  877, 7399, 3991
5746, 4959, 5324, 5486, 1315
5747, 6917, 4959, 1315, 4735
5748, 1028, 4065, 4960, 5107
5749, 6902, 4961,  791, 3838
5750, 5472, 4962, 7604, 7555
5751, 5362, 4963, 5585, 6934
5752,  848, 4642, 4963, 5362
5753, 1276, 4446, 4964, 7165
5754, 1241, 5623, 5854, 5539
5755, 7728, 7682, 7681, 5288
5756, 7681, 7682, 4965,  905
5757, 5050, 5461,  706, 4662
5758, 5166, 4968, 5366, 1129
5759, 2599, 4673, 4969,  776
5760, 1281, 4552, 4971, 7219
5761, 4972, 6797, 5026, 6800
5762, 6801, 4972, 6800, 6802
5763,  766, 4973, 2670, 5132
5764, 1209, 4321, 1175, 5196
5765, 4319, 4975, 5160,  896
5766, 5135, 5325, 5559, 1316
5767, 5324, 4985, 1349, 5486
5768, 4988,  909, 7578, 5295
5769, 5343, 4988, 5295, 5663
5770, 2859,  760, 4462, 2756
5771,  879, 7423, 4992, 7473
5772,  644, 4580, 4993, 5084
5773, 5659, 5336, 5297,  833
5774, 4995, 4376, 7972, 4310
5775, 7034, 5420,  764, 4708
5776, 6947, 6888, 5546, 5320
5777, 2776, 4997, 6888,  785
5778, 7960, 4998, 7949, 4104
5779, 7183,  790, 7128, 7185
5780, 5267,  654, 5001, 6983
5781, 5316, 5002,  439, 4657
5782, 1115, 5647, 5291, 7909
5783, 1081, 3939, 5005, 5321
5784, 7745, 5309,  587, 7733
5785, 5266,  864, 5695, 5603
5786, 5350, 5251, 5008, 7554
5787, 3889, 7368, 7271, 3700
5788, 5287, 5012, 7720, 5479
5789,  775, 6894, 5013, 5319
5790,  899, 5408, 5014, 5284
5791, 5618, 5015, 5290, 1180
5792, 7522, 5655, 7490, 5308
5793, 6948, 6947, 5320, 5017
5794, 5284, 7689, 5020, 7529
5795,  329, 4328, 5021, 5131
5796, 1028, 5292, 7981, 5340
5797, 4351, 4361, 7831, 5023
5798, 7921, 5025,  960, 4756
5799, 4772, 3581, 5026, 6797
5800, 1213, 4500, 5028, 7460
5801, 4539, 5028, 4502, 7478
5802, 2804, 2812, 6806,  277
5803,  668, 4354, 5030, 5482
5804, 5030,  669, 5346, 5482
5805, 7228, 5654, 5289, 5032
5806, 7349, 5032, 5289,  923
5807,  913, 5198, 4720, 5033
5808, 5064, 5345, 5621, 5398
5809,  874, 3531, 5034, 5345
5810, 5365,  452, 5045, 5575
5811,  428, 5364, 5035, 5595
5812, 7307, 7306, 5342, 5652
5813, 7307, 5285,  832, 5037
5814, 3610, 5038,  484, 7037
5815,  250, 3894, 7082, 5039
5816, 5296, 6933, 5040, 7017
5817, 5607, 5041,  810, 4732
5818, 5165, 5042, 1313, 5611
5819, 4083, 5043, 5466,  773
5820, 5362, 5294, 7100,  848
5821, 5225, 5047,  743, 4760
5822, 7952,  972, 5619, 5048
5823, 5435, 7493, 5461, 5050
5824, 5071, 5051, 7237, 5063
5825,  399, 5053, 5207, 7174
5826, 4785, 5054, 5414,  754
5827, 5055,  725, 4487, 6795
5828, 5638, 5460, 5157, 7592
5829, 5610, 5057,  492, 7096
5830,  485, 5617, 5057, 5610
5831, 5565, 6164, 5745, 5726
5832, 5060, 5436, 6939, 6878
5833, 7571, 7572, 7533, 5431
5834,  306, 7572, 7571, 5061
5835, 5062,  915, 5354, 5686
5836, 4749, 5063, 7237, 4765
5837,  976, 5576, 5418, 5404
5838, 5065, 5615, 5209,  975
5839, 3586, 3543, 7596, 5067
5840, 5068, 5158, 5858, 5439
5841, 5440, 5743, 7121, 5105
5842, 5613, 5074, 5757, 5692
5843, 5208, 5613, 4675, 4417
5844, 5075, 5853, 5609, 4925
5845, 6074,  499, 5811, 6136
5846, 5731, 5877, 5633, 5076
5847, 1048, 5616, 7880, 5077
5848, 5078, 5477,  567, 6881
5849, 5079, 4052, 5316, 7563
5850, 5634,  563, 7659, 7627
5851, 7746, 5081, 7659, 5235
5852, 4809, 4434, 5442, 5082
5853, 5083, 4880, 6971,  772
5854, 5435, 5085, 5801, 7502
5855, 5086, 5478, 5842, 5313
5856, 7851,  960, 5025, 4220
5857, 5088,  793, 4819, 5446
5858, 5446, 7277,  826, 5249
5859, 6988, 5680, 5335,  455
5860,  455, 2958, 5089, 6988
5861, 5090, 5453, 5972, 5556
5862, 7361, 5449, 5975, 5468
5863, 5246, 7218, 7360,  800
5864, 5458, 5092, 5160, 4975
5865, 5552, 5093, 6827, 5200
5866, 6930, 5093, 5552,  648
5867, 5444, 7378, 7317, 4922
5868, 5095, 5451, 6093, 5481
5869,  958, 5590, 5481, 7712
5870, 5252, 5096, 5484, 6968
5871, 5459, 4854,  724, 5003
5872, 6977,  456, 5476, 4716
5873, 5315, 5097,  465, 4927
5874, 1047, 4701, 5352, 7885
5875, 5305, 5614,  515, 5606
5876, 7402, 7492,  514, 7286
5877, 5883,  307, 5431, 7533
5878, 5100, 7533, 7572, 5411
5879,  484, 5572, 5341, 7037
5880,  250, 5039, 5102, 5800
5881, 5283, 5872, 5103, 5448
5882, 5872, 5283, 5618, 1180
5883,  786, 5017, 5320, 5337
5884, 7138, 5124, 4741, 5337
5885, 5106, 5603, 5695, 5513
5886, 7403, 5342, 7306,  831
5887, 1027, 5107, 5794, 5708
5888, 5108, 3733,  346, 3854
5889, 5628, 5109, 1311, 5113
5890, 5678, 7081, 5306, 1275
5891, 4925, 5609,  632, 7172
5892, 5111, 5457, 5965, 5491
5893, 5214, 5111, 5491, 5594
5894,  539, 5896, 5429, 5112
5895, 5682, 5114, 5825, 5755
5896, 5115, 2575,  653, 5170
5897, 5116,  801, 5820, 5156
5898, 7278, 7125, 5203, 5117
5899, 6085, 5245, 5467, 5700
5900, 5752, 5630,  513, 6187
5901,  680, 7379, 7378, 5444
5902,  710, 5076, 5633, 7088
5903, 6820, 5121,  737, 2499
5904, 5122,  830, 5456, 4706
5905, 5162, 5123,  904, 5815
5906,  820, 7241, 6080, 5421
5907, 5212, 5124, 7242, 7284
5908, 5463, 6087, 7518, 5125
5909, 5159, 5126, 6941,  666
5910, 3901, 5205, 5127, 5314
5911, 5128, 5422, 5338, 5546
5912, 5129, 5588, 7650,  912
5913, 5679, 5130, 7240, 5823
5914, 5884, 5445, 5131, 4463
5915, 5977, 5769,  555, 6079
5916, 5432, 5194, 5133, 5977
5917, 5399, 5135, 1316, 5069
5918, 5645, 5635,  917, 5756
5919, 5286, 4674,  872, 5213
5920, 5138,  618, 5171,  619
5921, 5492, 5139, 5758, 1319
5922,  451, 4830, 5140, 5666
5923,  817, 4833, 5141, 5494
5924,  919, 4825, 5142, 5667
5925, 5890, 5669,  699, 6850
5926,  712, 4837, 5143, 6785
5927, 5670, 5144, 5819, 6857
5928, 6110, 5672,  951, 6219
5929,  985, 4831, 5146, 6831
5930, 5671, 1222, 5768, 5147
5931, 1256, 4829, 5147, 5499
5932, 6828, 5673,  419, 6261
5933,  462, 4826, 5148, 6782
5934, 6780, 5773, 1307, 5504
5935,  883, 5831, 5585, 5318
5936,  884, 4832, 5151, 5675
5937, 6835, 6834, 6863, 1192
5938, 1191, 4827, 5152, 5676
5939, 5509, 5153, 5781, 1295
5940, 5899, 5417,  711, 6046
5941, 5295, 7578, 5658,  944
5942, 5725, 5661, 5820, 7137
5943, 7203, 5156, 5297, 4994
5944, 5056, 5157, 5460, 4766
5945, 5161, 5591, 5369, 6895
5946,  657, 4876, 5161, 6895
5947, 7681, 4745, 5162, 5288
5948, 5515, 6177, 5978, 7286
5949, 4611, 5163,  553, 4605
5950, 4321, 5164, 4346, 7520
5951, 1314, 4725, 5165, 6825
5952, 6190, 5827,  435, 5167
5953, 4148, 5168, 4178, 7690
5954, 5353, 5170,  653, 4924
5955, 5424, 5172,  350, 5870
5956, 5766, 6030, 5689, 5173
5957, 5478, 5174,  699, 5842
5958, 6100, 5176, 5492, 1319
5959, 5520, 6793, 5762, 1318
5960,  634, 4865, 5177, 5521
5961, 5178, 5522, 5765, 6052
5962, 5727, 5769, 5977, 5133
5963,  567, 6833, 5727, 6881
5964,  987, 6051, 5181, 5525
5965, 5182, 4869, 1346, 5355
5966, 5500, 6098, 5183, 6831
5967, 6049, 5185, 5530, 1300
5968, 5186, 5528, 5778, 6050
5969, 5779, 5187, 5499, 1255
5970, 5187, 5779, 1290, 5529
5971, 6102, 5188, 5504, 1307
5972, 5188, 5782, 5531, 1340
5973, 5573, 5190, 5533,  815
5974, 5505, 5190, 5573,  849
5975, 5791, 5191, 5534, 1258
5976, 5191, 5791, 6048, 5507
5977, 6103, 5192, 5509, 1295
5978, 5535, 6776, 5792, 1294
5979, 1178, 5387, 5197, 5400
5980, 7795, 7640, 5253, 5590
5981, 6784,  661, 4954,  662
5982,  661, 6784, 5200, 6827
5983, 5452, 5201,  499, 7294
5984, 5471, 7673, 5735, 1216
5985, 5454, 5203, 7125,  257
5986,  775, 5127, 5205, 6894
5987,  936, 5367, 5818, 7705
5988, 7705, 7700, 5206, 5608
5989, 5209, 5736, 7846, 5474
5990, 5681,  356, 5971, 5746
5991, 5746, 5487,  350, 5211
5992, 7295, 7268,  855, 5443
5993, 5124, 5212, 7106, 4741
5994, 5213,  873, 4695, 5286
5995, 5594, 7542, 7465, 5386
5996, 7448, 5379, 5592, 5875
5997,  680, 4882, 5374, 7379
5998, 5216, 4691, 7433,  681
5999,  878, 5217, 4656, 7472
6000, 5218, 6841, 5775, 6892
6001, 6892, 5775,  256, 5997
6002, 5776, 5219, 5520, 1318
6003, 5537, 5219, 5776, 1317
6004, 5220, 5538, 5777, 6059
6005, 5221, 4906, 1347, 5031
6006, 6058, 5222, 5540,  512
6007, 6057, 5223, 5541, 1022
6008, 6113, 5224, 5526, 1019
6009, 6115, 5226, 5527,  470
6010, 6054, 5227, 5547, 1301
6011, 6116, 5228, 5523,  497
6012, 5229, 5531, 6114, 5790
6013, 5790, 6854, 6779, 5229
6014, 5415,  781, 4703, 6933
6015, 5533, 5230, 5415,  815
6016, 5848, 5231, 5549, 1324
6017, 5528, 5231, 5848, 6055
6018, 1324, 5550, 5232, 5959
6019, 1179, 5385, 5589, 5868
6020, 6053, 5234, 5551,  286
6021, 4779, 7778, 7746, 5235
6022, 5840, 5236, 5553, 1293
6023, 5534, 5236, 5840, 1258
6024, 5799, 5237, 5535, 1294
6025, 5554, 5237, 5799, 1293
6026, 1082, 5376, 5579, 7680
6027, 5240, 7892, 7932, 4796
6028, 5241,  575, 5006, 7744
6029, 5663, 7784, 5577, 7767
6030, 5577, 7805, 5242, 7767
6031, 5243, 5863, 5817, 6928
6032, 6900, 6899,  378, 4767
6033,  877, 4958, 5488, 5462
6034, 4700,  876, 5245, 5488
6035, 7218, 4708,  799, 5091
6036, 5247, 6938, 5508, 4666
6037, 7396, 5248, 4737, 3462
6038, 5249,  826, 4737,  827
6039, 7446, 1178, 4754, 7337
6040, 5251, 7446, 7337, 1212
6041, 5252, 6968, 7064, 4710
6042, 5481, 5590, 5253, 5095
6043,  432, 5389, 5600, 5856
6044,  483, 4951, 5683, 5255
6045, 5880, 6848, 5597,  475
6046, 4929, 3263, 7544, 5256
6047, 7909, 5291, 7903, 5260
6048,  377, 5261, 4772, 6797
6049, 5262,  441, 4962, 5472
6050, 7581, 1174, 7634, 5263
6051, 5650, 5264, 5812, 7523
6052, 5602, 5396, 4777, 5265
6053, 7377,  863, 4816, 5356
6054, 5300, 5266, 5603,  830
6055, 5267, 4792, 5436, 5060
6056, 5997, 6955, 5536, 6892
6057, 5558, 5268, 5783,  309
6058, 5784, 5269, 5537, 1317
6059, 5559, 5269, 5784, 1316
6060, 5785, 5270, 5560,  352
6061, 5270, 5785, 6077, 5538
6062, 5271, 4939, 1348, 5339
6063, 6076, 5272, 5562, 1154
6064, 6075, 5273, 5563, 1056
6065, 6832, 5998, 5789, 5274
6066, 5564, 5274, 5789, 1086
6067, 5275, 6786, 5999, 5793
6068, 5567, 5275, 5793, 1123
6069, 6060, 5276, 5568,  249
6070, 5277, 6783, 6002, 5795
6071, 5569, 5277, 5795,  486
6072, 5797, 5278, 5570, 1302
6073, 5278, 5797, 6073, 5547
6074, 5279, 5548, 6124, 5798
6075, 5279, 5798, 6856, 5571
6076, 5549, 5280, 5550, 1324
6077, 5553, 5281, 5554, 1293
6078, 5283, 1181, 7737, 5618
6079, 5014, 4116, 7689, 5284
6080, 6253, 5730, 7603, 7559
6081, 5012, 5287,  937, 3904
6082, 5651,  941, 5660, 7785
6083, 5292, 1028, 5107, 1027
6084, 5296, 5788, 5573,  815
6085, 5574, 5044, 7017, 5040
6086, 6933, 5296,  815, 5415
6087, 5515,  553, 5163, 6177
6088,  514, 5099, 5614, 5299
6089, 5651, 5301, 5879,  941
6090, 5542, 5302, 6798, 5011
6091, 5304, 4996,  729, 5685
6092,  729, 2495, 2401, 5685
6093, 1276, 7165, 5306, 7081
6094, 1215, 5016, 7522, 5308
6095,  588, 5309, 7745, 4957
6096, 5694, 4697,  896, 5160
6097, 5694, 7560, 5310, 4697
6098, 5732, 7798, 5311, 5922
6099, 5312, 1248, 5655, 7522
6100,  687, 5024, 5313, 5555
6101, 5502, 5314,  739, 4991
6102, 6934, 5585, 5831,  849
6103, 5337,  819, 5687, 7138
6104, 5715, 5322, 5578,  332
6105, 5560, 5322, 5715,  352
6106, 5714, 5323, 5558,  309
6107, 5578, 5323, 5714,  332
6108, 5325, 5486, 1349, 4979
6109, 5324, 4959, 6851, 5339
6110, 5718, 5326, 5564, 1086
6111, 5717, 5327, 5581, 1120
6112, 5562, 5327, 5717, 1154
6113, 5719, 5328, 5567, 1123
6114, 5716, 5329, 5582, 1089
6115, 5563, 5329, 5716, 1056
6116, 5723, 5330, 5569,  486
6117, 5720, 5331, 5584,  493
6118, 5568, 5331, 5720,  249
6119, 5722, 5332, 5571, 6856
6120, 5721, 5333, 5586, 1303
6121, 5570, 5333, 5721, 1302
6122,  286, 5357, 5583, 6053
6123, 5506, 5336, 5742, 5906
6124, 5546, 5338, 5894, 5320
6125, 5617, 5898, 5101, 5057
6126, 5652, 5342, 7469, 7470
6127,  945, 5565, 5726, 7713
6128, 7234, 5344,  889, 4294
6129, 5873, 5621, 5483, 7615
6130, 5483, 5621, 5345,  873
6131,  669, 7156, 7048, 5346
6132,  658, 5369, 5591, 5887
6133, 1153, 7148, 7279, 5684
6134, 5512, 7683, 5740, 5905
6135, 5385, 1213, 7460, 4714
6136, 7651, 5627, 5350, 7652
6137, 5217, 5351, 7473, 4656
6138, 5033, 5351, 5646,  913
6139, 4891, 1081, 5605, 7786
6140, 5356, 4759, 5408,  899
6141, 5657, 5357,  286, 6060
6142, 7104, 5357, 5657, 7103
6143, 5358, 4798, 5013, 6970
6144, 5510, 7377, 5356,  899
6145, 7377,  864, 5266,  863
6146, 7665, 5519, 5360, 7666
6147, 6041, 5612, 5413, 5688
6148, 5362, 6934, 5788, 5294
6149, 5625, 5364,  428, 6787
6150,  429, 1984, 5364, 5625
6151, 5888, 5365, 5575, 5612
6152, 4790, 5366, 3870, 7841
6153, 5730, 7632, 5818, 5367
6154,  445, 6734, 6728, 5368
6155, 5137, 4726, 4773,  838
6156, 5370,  723, 2492, 5388
6157, 5072, 5372, 6848,  474
6158, 5885, 6896, 5880, 6029
6159, 5374, 4882,  693, 7502
6160, 5375, 5374, 7502, 5801
6161, 5430, 5580, 5749, 5707
6162, 1116, 4698, 5376, 5580
6163, 4675, 7600, 5215, 5377
6164, 5744, 5378, 7784,  944
6165, 5379, 5751, 5593, 7376
6166,  859, 5380, 7463, 4036
6167, 5019, 5383, 1115, 7909
6168, 5557, 4796, 5739, 7931
6169, 7924, 5384, 5739, 4796
6170, 5350, 7554, 1179, 7652
6171, 5123, 5386, 7465,  904
6172, 1178, 7446, 5627, 7555
6173, 5596, 6938, 5420, 7034
6174, 5685,  764, 5420, 5304
6175, 4668, 5389, 5601,  397
6176, 5866, 5720,  493, 5859
6177, 3611, 3671, 3835, 4806
6178, 7825, 3779, 3819,  936
6179, 7825, 5608, 7799, 5392
6180, 5393,  895, 7464, 3597
6181, 5394,  826, 7277, 3097
6182, 5395, 6871, 6872, 6929
6183, 7901, 7857, 5397,  965
6184, 3987, 5398, 4744, 7486
6185, 4635, 4638, 5400, 7447
6186, 5450, 5403,  754, 5414
6187, 7884, 7882, 5404, 5418
6188, 5406, 5425,  614, 7734
6189,  306, 4379, 5411, 7572
6190,  453, 5413, 5612, 5575
6191, 1077, 5416, 3513, 7281
6192, 6985, 7030,  711, 5417
6193, 5576,  976, 5378, 5744
6194, 5419, 4095, 3969, 5397
6195, 5247, 5304, 5420, 6938
6196, 5421, 7284, 7242,  820
6197, 5421,  854, 5640, 7284
6198, 6401, 5487,  351, 6137
6199, 5430, 5707, 5647, 1115
6200, 5431,  307, 7304, 5465
6201, 6881, 5727, 5133, 6953
6202, 5432, 5977, 6079,  554
6203,  973, 5048, 5433, 7842
6204, 7651, 5434, 5262, 5472
6205, 5461, 7493, 4929, 5256
6206, 5254, 5437,  431, 5600
6207,  430, 5689, 5747, 5438
6208, 5852, 5438, 5747, 5981
6209, 4692, 5470, 5858, 7715
6210, 5889, 5624, 5439,  865
6211, 1317, 5743, 5440, 5784
6212, 5265, 4973,  766, 5602
6213,  895, 5626, 5441, 7464
6214, 4696, 5212, 7268, 7295
6215, 5443,  855, 5469, 7401
6216, 5445, 5884, 7541, 5883
6217,  832, 5490, 5706, 7373
6218, 5706, 5975, 5449, 7373
6219,  923, 6093, 5451, 7349
6220, 1118, 5514, 5703, 7422
6221, 5972, 5453, 7422, 5703
6222,  940, 5656, 5796, 5922
6223, 5456,  830, 5603, 5106
6224, 5965, 5457, 5699,  902
6225, 5248, 5458,  861, 7397
6226, 5588, 5129, 5893, 5969
6227, 5463, 7582, 5696, 6087
6228, 7670, 5950, 5691, 5464
6229, 5690, 7491, 5691, 1126
6230, 5465, 7304, 7278, 5117
6231,  910, 5517, 5700, 5467
6232, 5725, 5975, 7324, 5661
6233, 7361, 7360, 7218, 5091
6234, 5114, 5469,  855, 5825
6235, 5470, 4692, 5204, 7540
6236, 5473,  877, 5462, 6085
6237, 5475, 4784, 4790, 7841
6238, 5053, 6928, 5817, 5207
6239, 6897, 5964, 5601, 5786
6240, 5727, 6833, 5180, 5769
6241,  903, 5491, 5965, 5479
6242, 4750, 5199, 7898, 5087
6243, 5480, 5956, 5709, 5258
6244, 5481, 6093, 7513, 7712
6245,  873, 5213, 7518, 5483
6246,  758, 7000, 6968, 5484
6247, 5881, 5903, 5904, 5485
6248, 5488, 4958, 5104, 4700
6249, 5910, 5989, 5738, 5707
6250, 5900, 7915, 5629, 5489
6251, 6056, 5828, 5741, 5806
6252, 5828, 5706, 5490, 5741
6253, 5491,  903, 7542, 5594
6254, 5176, 6100, 5762, 6793
6255, 5493,  416, 5759, 5140
6256, 5494, 5141, 5760,  818
6257, 5495,  954, 5761, 5142
6258, 5523, 5179, 6097,  497
6259, 5497, 1311, 5819, 5144
6260, 6823, 5767, 5145, 5498
6261, 5526, 5183, 6098, 1019
6262, 5527, 5184, 6101,  470
6263, 5503, 1299, 5772, 5149
6264, 5782, 5188, 6102, 5940
6265, 5505,  849, 5831, 5151
6266, 6253, 5506, 5906, 5963
6267, 5780, 5507, 6048, 5961
6268, 5508,  765, 5702, 5855
6269, 5192, 6103, 5792, 6776
6270, 5511, 5748, 5907, 6250
6271, 6215, 5512, 5905, 7759
6272, 5514, 5750, 1084, 5703
6273, 7286, 5978, 5808, 7402
6274, 5516, 1167, 5766, 5173
6275, 7713, 6279, 7756, 5946
6276, 5946, 5700, 5517, 7713
6277, 5518, 5250, 1094, 7893
6278, 7666, 1093, 6286, 6148
6279, 1352, 6793, 5520, 6762
6280, 5802, 6954, 6891, 5764
6281, 6059, 5765, 5522, 5220
6282, 5544, 5228, 6116,  542
6283, 5524,  555, 5769, 5180
6284, 5543, 5224, 6113, 1053
6285, 5545, 5226, 6115,  478
6286, 5778, 5528, 6055, 6866
6287, 5232, 5529, 1290, 5959
6288, 5268, 6842, 5536, 5783
6289, 5777, 5538, 6077,  355
6290, 4964, 1241, 5539, 7165
6291, 1240, 5891, 5539, 5854
6292, 5542,  397, 5915, 5863
6293, 5128, 5546, 6888, 4997
6294, 5239, 5556, 1083, 5876
6295, 5561, 5317, 5648,  948
6296, 5561,  948, 5895, 7269
6297, 5565,  945, 7767, 5242
6298,  466, 5315, 5566, 6004
6299, 5572,  476, 7092, 5341
6300,  814, 5044, 5574, 6986
6301, 5658, 5713, 5744,  944
6302, 5239, 5876, 7680, 5579
6303, 5376, 1082, 5749, 5580
6304, 5581, 5326, 5718, 1120
6305, 5582, 5328, 5719, 1089
6306, 6053, 5583, 6930,  648
6307, 5584, 5330, 5723,  493
6308, 5586, 5332, 5722, 1303
6309, 5886, 5587,  425, 6218
6310, 5868, 5589, 1180, 5290
6311, 5593, 5751, 6010, 5861
6312, 5681, 5593, 5861,  356
6313, 7542,  903, 7638, 5882
6314, 5711, 5595, 5888,  427
6315, 5862, 5702,  765, 5596
6316,  475, 5597, 5255, 6288
6317, 7096, 5859, 7057, 5610
6318,  492, 7147, 5598, 7096
6319, 5599, 3118, 5072,  474
6320, 5600,  431, 6845, 5856
6321, 5601, 5964, 5915,  397
6322, 5855, 5834,  766, 5132
6323,  249, 5720, 5866, 5604
6324, 5605, 1081, 5629, 7941
6325, 5606,  515, 5693, 7696
6326,  936, 7705, 5608, 7825
6327, 5816, 5198,  913, 7697
6328, 5802, 5853, 7038, 6954
6329, 6081, 5859,  493, 5723
6330, 5165, 5611, 5271, 6825
6331, 5612, 6041,  427, 5888
6332, 5613, 5692, 7600, 4675
6333, 5614, 5099, 5734,  515
6334, 5615, 5065, 5576, 5744
6335, 5865, 5616, 7881, 6005
6336, 7880, 5616, 5865, 7823
6337,  485, 5804, 5807, 5617
6338,  477, 5898, 5617, 5807
6339,  916, 7101, 5620, 5809
6340,  908, 5873, 5787, 5632
6341, 5398, 5621, 5873,  908
6342, 5622, 1173, 7510, 5698
6343, 5622, 5698, 6381, 5662
6344, 1209, 5426, 5623, 7362
6345, 5624,  864, 7487, 7496
6346, 6787, 5867, 5737, 5625
6347, 5251, 5350, 5627, 7446
6348, 5630, 5752, 5684, 5118
6349, 7768, 5713, 5658, 5155
6350, 7030, 5633, 5877,  711
6351,  563, 5634, 4112, 5733
6352, 5826, 5636,  466, 7197
6353, 1026, 6127, 5954, 6278
6354, 5637, 5384, 7981, 5292
6355, 5638, 5464, 5691, 7491
6356,  539, 5460, 5638, 7491
6357, 5170, 5353, 5639, 6789
6358, 5755, 5825, 5640,  854
6359, 6136, 7135, 6099, 7073
6360, 6131, 6956, 5994,  308
6361, 5287,  902, 7603, 5643
6362, 5963, 5906,  901, 7626
6363, 1311, 5109, 5644, 5819
6364,  883, 5318, 5645, 5756
6365, 5647, 5707, 5738, 7906
6366, 7485, 5648, 5816, 7587
6367, 7182, 5649, 3199, 3155
6368, 5650,  866, 7540, 5204
6369, 7684, 5660,  941, 5349
6370, 5470, 7540, 7470,  865
6371, 6192, 1153, 5990, 1154
6372, 6130, 5824, 7033,  887
6373, 1249, 6129, 7358, 5992
6374, 5830, 7490, 5655, 7358
6375, 5656, 5815, 7671, 5796
6376, 5656,  940, 7728, 5288
6377, 5800, 5657, 6060,  249
6378, 5800,  249, 5604,  250
6379, 5828, 6056,  833, 7324
6380,  833, 5297, 5661, 7324
6381, 5662, 6381, 6298, 6419
6382, 5821, 7439, 5662, 6419
6383,  945, 5343, 5663, 7767
6384, 6912, 6095, 7009, 6037
6385, 6826, 5836, 5667,  920
6386, 5669, 5890, 5763, 5143
6387, 5841, 1310, 6117, 6205
6388, 5768, 1222, 7003, 6111
6389, 5672, 6110, 5770, 5146
6390, 5771, 6828, 6109,  461
6391, 6262, 6974, 1308, 6243
6392, 5846, 1298, 6121, 6209
6393, 6265, 5781, 1296, 6840
6394, 7081, 5678, 5109, 7102
6395, 5754, 5679, 5823, 1283
6396, 1248, 5312, 5679, 5754
6397, 5851, 5680,  424, 6193
6398, 5335, 5680, 5851,  425
6399, 5971, 5920, 6150,  351
6400, 5344, 5682,  888, 7228
6401, 6288, 5255, 5683, 7092
6402, 7279, 7148, 5348, 7280
6403,  949, 5686, 5354, 7269
6404, 5686,  949, 6007, 5837
6405, 7138, 5687, 7241,  820
6406, 5688,  426, 5728, 6041
6407, 1168, 5747, 5689, 6030
6408, 7430, 7386, 6598, 6088
6409, 7491, 5690, 5896,  539
6410, 7670, 5464, 7593, 1127
6411, 5875,  414, 6045, 7448
6412,  864, 5624, 5889, 5695
6413, 7615, 6087, 5696,  907
6414, 6094, 5697, 1310, 6857
6415, 7509, 7510, 5957, 6303
6416, 7610, 6085, 5700, 5946
6417, 6072, 1208, 5821, 6266
6418, 5854, 5701, 6072, 1240
6419, 5702, 5862, 6036, 7035
6420, 5972, 5703, 1084, 5710
6421, 7513, 5704,  957, 5724
6422, 6093,  923, 5704, 7513
6423, 6040, 4108, 4198, 4209
6424,  435, 5298, 5705, 6040
6425, 7324, 5975, 5706, 5828
6426,  992, 6071, 5708, 5794
6427, 5588, 6163, 5970, 7650
6428, 5709,  992, 5794,  993
6429, 7539, 6272, 7538, 7642
6430, 5595, 5711, 6843,  428
6431,  433, 6280, 7072, 5712
6432, 5207, 5817,  398, 5712
6433, 6107, 5714,  309, 6131
6434, 1120, 6003, 5948, 5717
6435, 6399, 7131, 6106, 7025
6436, 5944, 5721, 1303, 6241
6437, 1304, 6104, 5722, 6856
6438, 6937, 6081, 5723,  486
6439, 5725, 7137, 5468, 5975
6440,  946, 6163, 6275, 6279
6441, 6833,  567, 5477,  568
6442, 1165, 6978, 6189, 6380
6443, 6041, 5728, 6216,  427
6444, 1005, 7922, 5902, 3482
6445, 5980, 7700, 7626,  901
6446, 5730, 5367, 5643, 7603
6447, 7294, 5731, 5076, 5452
6448,  498, 5877, 5731, 6074
6449, 5922, 5311, 7785,  940
6450, 5652, 7470, 7540,  866
6451, 1216, 5735, 5308, 7490
6452, 7846, 6251,  942, 5474
6453, 1166, 6078, 5737, 5867
6454, 1167, 5516, 5737, 6078
6455, 5774, 5900, 5989, 1049
6456, 5982, 5860, 1061, 5805
6457,  941, 5879, 6086, 5740
6458, 5905, 5740, 6086, 5904
6459, 5806,  866, 5650, 7523
6460, 5742,  867, 7523, 5812
6461, 5906, 5742, 5812,  901
6462, 5935, 5743, 1317, 5776
6463, 5726, 5745, 6067,  946
6464,  351, 5487, 5746, 5971
6465, 5748,  922, 5924, 5907
6466, 5749, 1082, 6242, 6092
6467, 5925, 5750, 1119, 7132
6468, 1084, 5750, 5925, 6223
6469, 5916, 5751,  392, 6146
6470, 5919, 6076, 1154, 5990
6471, 1153, 5684, 5752, 5990
6472,  980, 6578, 6474, 6530
6473, 7484, 6182, 5987, 7366
6474, 6065, 6282, 7282, 5986
6475, 6064, 6281, 6961, 5988
6476,  888, 5682, 5755, 5988
6477, 5953, 5762, 6100, 7021
6478, 5417, 5899, 5496, 5763
6479, 5764, 5134,  633, 5802
6480, 6052, 6957, 5952, 6329
6481, 6957, 6052, 5765, 6059
6482, 5909, 5766, 1167, 6149
6483, 5899, 5951, 6097, 5496
6484, 5500, 5770,  984, 6391
6485, 5501, 5771,  461, 6913
6486, 5771, 5148, 5673, 6828
6487, 7019, 5962, 6858, 5772
6488, 5774, 1048, 7915, 5900
6489, 6891, 5775, 6841, 5521
6490, 1019, 6098, 5945, 7018
6491, 6147, 5934,  355, 6077
6492, 5934,  394, 5777,  355
6493,  470, 6101, 6914, 6176
6494, 6049, 1300, 6178, 6319
6495, 5152, 5507, 5780, 6834
6496, 5531, 5782, 1306, 6114
6497, 1053, 6113, 5931, 6161
6498, 6096, 5813, 5997,  256
6499, 5920, 5785,  352, 6150
6500, 6077, 5785, 5920, 6147
6501, 5786,  432, 5926, 6897
6502, 7685, 6084, 5787,  907
6503, 5930,  542, 6116, 6950
6504,  478, 6115, 5929, 6089
6505,  849, 5573, 5788, 6934
6506, 6073, 6165, 1301, 5547
6507, 5789, 5998, 5917, 7024
6508, 5790, 6114, 5927, 1305
6509, 1305, 6908, 6854, 5790
6510, 5791, 1258, 6889, 5939
6511, 6048, 5791, 5939, 6230
6512, 5792, 6103, 6999, 5938
6513, 5793, 5999, 6949, 5914
6514, 5807, 5804, 6936, 5913
6515,  939, 5455, 5796, 7671
6516, 5922, 5796, 5455, 5732
6517, 5912, 5797, 1302, 6154
6518, 6908, 5798, 6124, 6854
6519, 1293, 6125, 5958, 5840
6520, 5801, 5427,  694, 5375
6521, 5802,  633, 5609, 5853
6522, 4841, 7543, 5803, 7627
6523, 7694, 7701, 5803, 6090
6524,  485, 5610, 7057, 5804
6525, 6127, 5805, 5983, 5954
6526, 5805, 6127, 6302, 5982
6527,  476, 6039, 6433, 5923
6528, 5659,  833, 6056,  867
6529, 5808,  513, 5630, 7402
6530, 5809,  950, 6091, 6118
6531, 7720, 5810,  938, 7638
6532, 7523,  867, 6056, 5806
6533, 5994, 5921, 5813, 5642
6534, 5853, 5075, 6096, 7038
6535, 6064,  854, 6126,  853
6536, 6126, 6080, 7241, 5996
6537, 7633, 6301, 5991, 5970
6538, 6301, 7587, 5814, 5991
6539, 5869, 6062, 7671, 5815
6540, 7700, 7705, 5818, 7626
6541,  801, 5834, 7035, 5820
6542, 5935, 7022, 6255, 5937
6543, 6000, 7033, 5824, 5654
6544, 6130, 6188, 7226, 5824
6545, 6004, 6214, 7197,  466
6546, 6375, 6156, 5827, 6190
6547, 6156, 5957, 7510, 1173
6548, 5874, 5995,  456, 6977
6549, 5680, 5829, 6586,  424
6550, 5830, 7358, 6129, 6173
6551, 6824, 6132, 6873, 6140
6552, 5833, 6013, 6133, 6200
6553, 5834,  801, 5602,  766
6554, 6032, 5835, 6134, 6142
6555, 6201, 6135, 6134, 5835
6556, 6191,  950, 5837, 6007
6557, 6138, 6132, 6199, 6203
6558, 6203, 5838, 6018, 6138
6559, 6204, 6200, 6133, 6139
6560, 6031, 5839, 6204, 6139
6561, 1309, 6397, 6117, 6186
6562, 6021, 5841, 6205, 1343
6563, 6207, 6033,  917, 6874
6564, 6118, 6874, 6083, 5809
6565, 1157, 6119, 6206, 6245
6566, 5844, 6206, 6119, 6836
6567, 6120, 5845, 6208, 6397
6568, 6397, 6208, 6205, 6117
6569, 6209, 6121, 1297, 6248
6570, 6025, 5846, 6209, 1331
6571, 5847, 6033,  918, 6026
6572, 1324, 5959, 5960, 5848
6573, 1156, 6245, 6206, 6022
6574, 6027, 5849, 6245, 1156
6575, 1331, 6209, 6248, 6028
6576, 5480, 5199,  959, 5956
6577, 6212, 5856, 6845, 6044
6578, 7894, 7859, 6066, 7910
6579, 5861, 6010, 5908,  356
6580, 7137, 6036,  800, 5468
6581,  398, 5817, 5863, 5915
6582, 5864, 5518, 7893, 7894
6583, 5865, 6175, 6006, 7823
6584, 7651, 7652, 7780, 5434
6585, 7762, 6062, 6019, 4141
6586, 5870, 6401, 6283, 6068
6587, 5974, 5871,  958, 5724
6588, 6047, 5956,  959, 5871
6589, 7615, 5483, 7518, 6087
6590,  907, 5787, 5873, 7615
6591, 6881, 6953, 4699, 5078
6592, 7600, 5692, 5875, 5592
6593, 5876, 1083, 7642, 5973
6594, 6196, 5876, 5973, 1051
6595, 7699, 5878,  563, 5733
6596, 5904, 6086, 5879, 5485
6597, 6848, 5880, 6896,  474
6598, 4141, 6019,  938, 7775
6599,  330, 7541, 5884, 5424
6600, 6004, 5566, 5885, 7071
6601, 6896, 5885, 5566, 5373
6602,  426, 5587, 5886, 5985
6603, 4575, 7080, 5887, 7048
6604, 6850,  699, 5174, 6905
6605, 5890, 6850, 5417, 5763
6606, 6195, 6009, 5891, 1240
6607, 1275, 5306, 5891, 6009
6608, 1217, 6340, 5993, 6173
6609, 6085, 7610, 7547, 5473
6610,  911, 5969, 5893, 7547
6611, 5760, 6095, 6912,  818
6612,  948, 7366, 6197, 5895
6613, 6007,  949, 6038,  982
6614, 5429, 5896, 7392,  540
6615, 6291, 6039, 7085, 6277
6616, 7085, 7195, 5898,  477
6617, 6046,  711, 5877,  498
6618, 5738, 5989, 5900, 5489
6619, 5904, 5903,  942, 5905
6620, 7759, 6084, 7685, 6215
6621, 5907,  956, 6235, 6250
6622, 6169, 5908, 6010,  393
6623, 6361, 5909, 6149, 1202
6624, 1050, 6217, 6242, 6043
6625, 6166, 5911, 6908, 1305
6626, 6155, 5911, 6315, 7175
6627, 6963, 6313, 7054, 6964
6628, 5795, 6002, 5913, 6936
6629, 6089, 5913, 6002,  478
6630, 1123, 5793, 5914, 6153
6631, 5916, 6146, 6373, 6267
6632, 6306, 5917, 6161, 1052
6633, 6305, 5918, 6151, 1057
6634, 1022, 6075, 5918, 6160
6635, 6187,  513, 7254, 7149
6636, 5921, 5994, 6956, 6955
6637, 6955, 5997, 5813, 5921
6638, 6356, 6443, 6290, 5923
6639, 6356, 5923, 6433, 6367
6640,  433, 5712, 5964, 6897
6641,  956, 5907, 5924, 6378
6642, 6001, 7300, 7253, 7226
6643, 6106, 6003, 1120, 5718
6644, 5925, 1085, 7263, 6223
6645, 5926, 6061, 6287, 6270
6646, 6897, 5926, 6270,  433
6647, 6165, 5928, 6054, 1301
6648, 6324, 5929, 6176, 7010
6649, 6950, 6170, 7016, 5930
6650, 6307, 5932, 6160, 1023
6651,  987, 6057, 5932, 6171
6652, 5978, 6177, 6273, 7254
6653,  555, 6058, 5933, 6079
6654, 6059, 5777,  394, 6957
6655, 6168, 6255, 7022, 5953
6656, 5936, 5736,  943, 5632
6657, 1282, 7121, 5937, 7240
6658, 6231, 6337, 1260, 6999
6659, 7044, 6952, 6184, 1259
6660, 6229, 5940, 6102, 1307
6661, 6181, 5940, 6321, 1271
6662, 7097, 6225, 1254, 6489
6663, 5779, 5941, 6958, 1290
6664, 6866, 6055, 6180, 5942
6665, 6224, 5942, 6366, 1288
6666, 5943, 6227, 6318, 7010
6667, 5945, 6391, 7063, 6314
6668, 7649, 7610, 5946, 7756
6669, 6334, 5947, 6238, 1090
6670, 1056, 5716, 5947, 6151
6671, 1154, 5717, 5948, 6192
6672, 6236,  331, 6137, 5949
6673,  352, 5715, 5949, 6150
6674, 6171,  988, 6311, 6330
6675, 7584, 6185, 5950, 7665
6676, 5691, 5950, 6185, 1126
6677,  497, 6097, 5951, 6170
6678,  394, 6169, 5952, 6957
6679, 6388, 6220, 1284, 7105
6680, 6210, 6168, 5953, 7021
6681, 1027, 5708, 5954, 5983
6682,  992, 5709, 5956, 6047
6683, 6157, 7509, 6303, 6585
6684, 6125, 6906, 6991, 6184
6685, 1258, 5840, 5958, 6889
6686, 1290, 6958, 6179, 5959
6687, 5960, 6180, 6055, 5848
6688, 5961, 6352, 6264, 6863
6689, 7019, 6228, 6351, 5962
6690, 6253, 5963, 7632, 5730
6691, 5966, 6867, 1323, 6224
6692, 5966, 6224, 1288, 6349
6693, 7188, 6346,  955, 6240
6694,  920, 5761, 5967, 6258
6695, 6257, 5968, 6344,  449
6696,  450, 5759, 5968, 6257
6697, 5969,  911, 7649, 6275
6698, 5588, 5969, 6275, 6163
6699, 7650, 5970, 5991, 7698
6700, 7642, 1083, 5710, 7539
6701, 6194, 6047, 5871, 5974
6702, 7360, 7361, 5468,  800
6703, 6186, 5976, 6312, 1309
6704,  554, 6079, 6273, 6177
6705,  513, 5808, 5978, 7254
6706, 1282, 4715, 5105, 7121
6707, 4768, 5206, 7700, 5980
6708, 6284, 6232, 1168, 6030
6709, 5852, 5981, 1169, 6044
6710, 7859, 1060, 7803, 6066
6711,  412, 6063, 5984, 7730
6712, 1249, 5992, 5986, 7282
6713, 5754, 5986, 5992, 1248
6714, 6038, 5895, 6197, 7186
6715, 5753, 7484, 7366,  948
6716, 7033, 6000,  888, 5988
6717, 7580, 5993, 6271, 5892
6718, 6239, 6299, 6586, 5995
6719, 6364, 5996, 6037, 7009
6720, 6126, 5996, 6364,  853
6721, 5543, 1053, 5998, 6832
6722, 5544,  542, 5999, 6786
6723, 6949, 5999,  542, 6162
6724, 6001, 7188, 6240, 7300
6725, 5545,  478, 6002, 6783
6726, 5948, 1119, 5822, 6192
6727, 5774, 1049, 7800, 7881
6728, 6422, 6269,  978, 6174
6729, 6295, 6422, 6006, 6175
6730, 1163, 6218, 6008, 6379
6731, 6195, 6296, 6476, 6009
6732, 5832, 6199, 6132, 6824
6733, 6133, 6013, 6141, 1189
6734, 6915, 6016, 6826, 7113
6735, 6135, 6016, 6915, 6143
6736, 6144, 6018, 1322, 6259
6737,  939, 7671, 6062, 7762
6738, 6207, 6023,  918, 6033
6739, 6208, 6024, 1343, 6205
6740, 6029, 5880,  475, 6290
6741, 6031, 6139, 6145, 7001
6742, 5665, 6032, 6853,  852
6743, 1320, 6824, 6140, 6256
6744, 6034, 1320, 6875, 5664
6745, 7393, 6414, 6237, 7391
6746,  308, 5897, 6035, 6331
6747, 7009, 6095, 6254, 6364
6748, 6291, 6367, 6433, 6039
6749, 6042, 5883, 7541, 7453
6750, 7453, 6068, 6283, 6035
6751, 6242, 6217, 5910, 6092
6752, 1082, 7680, 6043, 6242
6753, 6393, 6212, 6044, 1169
6754, 7448, 6045, 6146,  392
6755, 6049, 1299, 5503, 5185
6756, 6823, 6050, 1323, 6867
6757, 5498, 5186, 6050, 6823
6758, 6051,  954, 5495, 5181
6759, 6052,  416, 5493, 5178
6760, 6053,  648, 5532, 5234
6761, 6054, 1300, 5530, 5227
6762, 6057,  987, 5525, 5223
6763, 6058,  555, 5524, 5222
6764, 6060,  286, 5551, 5276
6765,  413, 5757, 6063, 7573
6766, 6080, 6126,  854, 5421
6767, 1283, 6168, 6210, 6065
6768, 6403, 7353, 7407, 6460
6769, 6304, 6269,  979, 7718
6770, 6035, 6283,  331, 6331
6771, 6289, 6070, 1165, 6369
6772, 1166, 5867, 6070, 6289
6773, 6047, 6194, 6071,  992
6774, 6278, 6071, 6194,  991
6775, 6072, 5701, 7412, 1208
6776, 6074, 5731, 7294,  499
6777, 6075, 1022, 5541, 5273
6778, 6076,  512, 5540, 5272
6779, 6078, 6341, 6149, 1167
6780, 6070, 6082, 6978, 1165
6781,  917, 5635, 6083, 6874
6782, 6088, 7424, 7585, 7430
6783, 6118, 6091,  951, 5843
6784, 6095, 5760,  852, 6254
6785, 7038, 6096,  256, 6954
6786, 6098, 5500, 6391, 5945
6787,  540, 7392, 7391, 6237
6788, 6162, 6951,  541, 6308
6789, 6100, 1319, 6388, 7021
6790, 6101, 5501, 6913, 6914
6791, 5943, 6914, 6913,  461
6792, 6999, 6103, 1295, 6231
6793, 1303, 5722, 6104, 6241
6794, 6372, 6105, 6153, 1124
6795, 1089, 5719, 6105, 6238
6796, 6106, 5718, 1086, 7025
6797,  332, 5714, 6107, 6236
6798, 6956, 6131,  309, 5783
6799, 6262, 6335, 6108, 6974
6800,  420, 6333, 6261, 6436
6801, 6226, 6110, 6219, 6328
6802,  984, 5770, 6110, 6226
6803, 1255, 5768, 6111, 6225
6804, 6256, 6112, 6875, 1320
6805, 6113, 1019, 7018, 5931
6806, 6114, 1306, 6885, 5927
6807, 5776, 1318, 7022, 5935
6808, 6950, 6116,  497, 6170
6809, 5843, 6207, 6874, 6118
6810, 6336, 6410, 1157, 6122
6811, 6836, 6119, 6886, 6837
6812, 6312, 6405, 6438, 1309
6813, 6248, 1297, 6123, 5850
6814, 6123, 6342, 6247, 6840
6815, 5850, 6123, 6840, 1296
6816, 6854, 6124, 5548, 6779
6817, 6997, 6323, 7111, 6991
6818, 6368, 6302, 6127, 1026
6819, 6173, 6129, 6293, 1217
6820, 6294, 6188, 6130,  887
6821, 6952, 5958, 6125, 6184
6822, 7633,  947, 6428, 6362
6823, 7633, 6362, 7588, 6301
6824, 6139, 6133, 1189, 6145
6825, 6135, 6201, 6202, 6016
6826, 6134,  886, 6479, 6142
6827,  886, 6134, 6135, 6143
6828, 6310, 6074, 6136, 7073
6829, 7135, 6136, 5811, 5641
6830, 6132, 6138, 1321, 6873
6831, 6140, 6873, 6382, 6390
6832, 1188, 7074, 6389, 6439
6833, 6142, 6502, 6853, 6032
6834, 6383, 6350, 6479,  886
6835, 7032, 7202, 6188, 6294
6836, 6384, 6382, 6873, 1321
6837, 6431, 6385, 7074, 1188
6838, 6148, 6286, 6358, 1092
6839, 7584, 6148, 1092, 6576
6840, 7131, 1085, 5925, 7132
6841, 7025, 7024, 6152, 6399
6842, 5912, 7055, 6313, 6963
6843, 7175, 1269, 6370, 6155
6844, 1304, 6965, 5911, 6155
6845, 1172, 5957, 6156, 6375
6846, 7314, 6157, 7323, 1207
6847, 5698, 7510, 7509, 6157
6848, 6274, 5724,  957, 7440
6849, 6158, 7667, 6396,  991
6850, 5919, 6187, 7149, 6159
6851, 7254, 6273, 7133, 7149
6852, 6162,  542, 5930, 6951
6853,  978, 5745, 6164, 7940
6854, 1266, 6316, 6165, 6964
6855, 6166, 1305, 5927, 6926
6856, 1084, 6272, 7539, 5710
6857, 6255, 6168, 1283, 5823
6858, 5930, 7016, 6310, 6951
6859, 6425, 6527, 6469, 6571
6860, 6309, 6172, 1018, 6495
6861, 6173, 5993, 7580, 5830
6862, 6174,  978, 7940, 4392
6863, 6175, 1014, 6297, 6295
6864, 1265, 6319, 6178, 6316
6865, 6179, 6958, 7097, 6320
6866, 1289, 6128, 6179, 6320
6867, 6317, 6181, 1271, 6494
6868, 6182, 7484, 6578,  980
6869, 6515, 6182,  980, 7561
6870, 6365, 6183, 7044, 1259
6871, 6499, 6233, 6300, 7336
6872, 1274, 6312, 5976, 6476
6873, 7202, 6001, 7226, 6188
6874, 5824, 7226, 7253,  922
6875, 6082, 6870, 6216, 6978
6876, 6375, 6190,  434, 6417
6877, 6328, 6219,  950, 6191
6878, 1153, 6192, 5822, 7148
6879, 1162, 6379, 6193, 6400
6880, 6266, 6195, 1240, 6072
6881, 6195, 6266, 6420, 6296
6882, 6376, 6196, 1051, 7483
6883, 6266, 5821, 6419, 6420
6884, 5987,  981, 6197, 7366
6885, 6197,  981, 6688, 7186
6886, 6359, 6211,  413, 7573
6887, 6198, 6359, 7573, 7574
6888, 6199, 6011, 1355, 6203
6889, 6200, 1190, 6012, 5833
6890, 6201, 6014,  885, 6202
6891, 6202,  885, 6015, 5836
6892, 6203, 1355, 6017, 5838
6893, 6204, 6020, 1190, 6200
6894, 6269, 6304,  946, 6067
6895,  947, 6163,  946, 6304
6896, 6220, 6388, 1319, 5758
6897, 6402, 6213, 7407, 6406
6898, 6299, 6239, 6402,  423
6899, 6004, 7071, 7207, 6214
6900, 7207, 6392,  458, 6214
6901, 5696, 6215, 7685,  907
6902, 5512, 6215, 5696, 7582
6903, 5728, 6189, 6978, 6216
6904, 7801, 7726, 6276, 6005
6905, 6398, 6285, 1163, 6461
6906,  416, 6052, 6329, 6221
6907,  954, 6051, 6330, 6222
6908, 6348, 6272, 1084, 6223
6909, 5942, 6224, 1323, 6866
6910, 6227,  460, 6492, 6318
6911, 6228, 1299, 6049, 6319
6912, 6229, 1307, 6108, 6335
6913, 1193, 6264, 6352, 6468
6914, 6999, 1260, 6323, 6997
6915, 6404, 6232, 6463, 1204
6916, 6463, 6232, 6284, 1203
6917, 6233, 1125, 7386, 7430
6918, 6322,  412, 7730, 6292
6919, 7833, 6374, 6234, 7771
6920, 6250, 6235, 7440,  957
6921,  457, 6213, 6402, 6239
6922, 6240,  955, 6527, 6378
6923, 6837, 6886, 6927, 6436
6924, 6438, 6405, 6960, 6435
6925, 6262, 6243, 6435, 1273
6926, 6454, 6244, 6263, 1263
6927, 6245, 5849, 6122, 1157
6928, 6412, 6246, 6904, 6529
6929, 6342, 6413, 6975, 6247
6930, 6250,  957, 5704, 5511
6931, 6251, 7846, 5736, 5936
6932, 5506, 6253, 7559, 5699
6933,  852, 6853, 6502, 6254
6934, 6364, 6254, 6502,  853
6935, 6484, 6427, 1284, 6327
6936, 6442,  921, 7032, 6383
6937, 6144, 6387, 6384, 1321
6938, 6868, 6259, 1322, 5767
6939, 6260, 7003, 7001, 6386
6940, 6483, 1254, 6332, 7230
6941, 6246, 6264, 1193, 6904
6942, 1261, 6480, 6337, 6901
6943,  393, 5916, 6267, 7338
6944, 6693,  982, 6415, 6668
6945, 6191, 6268,  983, 6328
6946, 6269, 6422, 6295,  979
6947, 7678, 6757, 6340, 6753
6948, 7538, 7429, 7428, 6167
6949, 6274, 7440, 6343, 7586
6950, 6279, 6275, 7649, 7756
6951, 6005, 6276, 7725, 1014
6952, 6291, 6277, 6324,  469
6953,  477, 6089, 6277, 7085
6954, 6339,  991, 6396, 7654
6955, 5726,  946, 6279, 7713
6956, 7072, 6280, 6417,  434
6957, 7791, 4420, 7793, 4398
6958, 7730, 5984, 7793, 4420
6959, 6282, 6427, 6347, 7282
6960, 6068, 7453, 7541,  330
6961, 6285, 1164, 5985, 5886
6962, 6287, 6061, 1170, 6357
6963, 6291,  469, 6478, 6367
6964, 7085, 6039,  476, 7195
6965, 6421, 1250, 6580, 6472
6966, 6350, 6294,  887, 6961
6967, 6539, 7164, 6507, 1274
6968, 1015, 6569, 6418, 6363
6969,  979, 6295, 6297, 6475
6970, 6298, 6381, 7314, 6501
6971, 7584, 6576, 6300, 6185
6972, 7588, 6362, 7602, 7589
6973, 5982, 6302, 1060, 7859
6974, 6417, 6488, 1172, 6375
6975, 7264, 6306, 1052, 6485
6976, 6308,  541, 6360, 1124
6977, 6221, 6329, 7130,  415
6978, 6405, 6312, 1274, 6507
6979, 1267, 7056, 7054, 6313
6980, 1018, 6172, 6314, 6467
6981, 6315, 7020, 6496, 7126
6982, 1269, 7175, 6315, 7126
6983, 6926, 6317, 6494, 1270
6984, 6492, 6478,  469, 6318
6985, 6228, 6319, 1264, 6351
6986, 1289, 6489, 6453, 7041
6987, 6491, 6321, 1272, 6559
6988, 6322, 6493, 7771, 6234
6989, 1259, 6490, 6450, 6365
6990, 7111, 1259, 6184, 6991
6991, 6425,  956, 6378, 6527
6992, 7115, 7114, 6346, 7188
6993, 6327, 1284, 6220, 6112
6994, 6328,  983, 7063, 6226
6995, 1254, 6225, 6111, 6332
6996, 6333,  460, 6227, 6109
6997, 6459, 6334, 1090, 6608
6998, 6410, 6336, 6412, 1158
6999, 6553, 6338, 6241, 1268
7000, 7170, 1267, 6313, 7055
7001, 7654, 6396, 7667, 6446
7002, 6339, 7654, 6517, 6423
7003, 6472, 6407, 1217, 6293
7004, 1202, 6149, 6341, 6477
7005, 6342, 6411, 6577, 6413
7006, 6325, 6343, 7440, 6235
7007, 7586, 6343, 6486,  990
7008, 7313, 6473, 6344,  415
7009, 6345, 6531, 1018, 6467
7010, 6531, 6345, 6693, 1017
7011, 5967, 6346, 7114, 6258
7012, 6484, 1285, 6532, 7136
7013, 6347, 7136, 6421, 7267
7014, 7429, 6348, 6485, 7370
7015, 6471, 6349, 1288, 6554
7016, 6281, 6479, 6350, 6961
7017, 6470, 6351, 1264, 6558
7018, 6352, 6230, 1225, 6468
7019, 6353, 6217, 1050, 7679
7020, 6368, 6424, 1060, 6302
7021, 1059, 6487, 6354, 6424
7022, 6451, 7266, 6573,  459
7023, 6519, 6595, 6357, 6429
7024, 1171, 6287, 6357, 6595
7025, 6359, 6198,  447, 6430
7026,  448, 6371, 6430, 6579
7027, 6360,  541, 7073, 6099
7028, 6361, 1202, 6541, 6457
7029,  947, 6304, 7718, 6428
7030, 6530, 6474, 6428, 7718
7031, 7725, 6276, 6363, 6418
7032, 6401, 6137,  331, 6283
7033, 1225, 6230, 6365, 6450
7034, 6423, 6368, 1026, 6339
7035, 1165, 6380, 6437, 6369
7036, 6441, 6371, 6473, 7313
7037, 6211, 6371, 6441,  414
7038, 6498, 6372, 1124, 6552
7039, 6267, 6373, 7313,  415
7040, 6376, 7483, 6434, 6518
7041, 6376, 6518, 7679, 1050
7042, 6409, 6377, 6515, 6590
7043, 6688, 6514, 6415, 7186
7044, 7171, 6448, 6380, 1164
7045, 6390, 6382, 6432, 7040
7046, 1189, 7074, 6385, 6145
7047, 7074, 1189, 6141, 6389
7048, 6294, 6350, 6383, 7032
7049, 6387, 6144, 6259, 1287
7050, 6386, 6385, 6431, 1221
7051, 6440, 6387, 1287, 6524
7052, 7021, 6388, 7105, 6210
7053, 6935, 6390, 7040, 1285
7054, 6256, 6140, 6390, 6935
7055, 6393, 6456, 6506, 6921
7056, 1170, 6212, 6393, 6921
7057, 7427, 7428, 7429, 7370
7058, 7351, 7352, 6449, 7270
7059, 1201, 6252, 6395, 6500
7060, 1164, 6285, 6398, 7171
7061, 6399, 7263, 1085, 7131
7062, 6460,  458, 6451, 6639
7063, 7353, 6403, 6591, 6538
7064, 6507, 6625, 6960, 6405
7065, 6407, 6472, 6574, 6632
7066, 6677, 6751, 6632, 1184
7067, 6488, 6537, 6408, 1172
7068, 6657, 6408, 6537, 7210
7069, 6575, 1016, 6600, 7525
7070, 6409, 6590, 6600, 6514
7071, 6244, 6454, 6577, 6411
7072, 1262, 6528, 6413, 6577
7073, 6668, 6583, 1017, 6693
7074, 6516, 6654, 6678, 6416
7075, 6461, 6416, 6678, 1198
7076, 6488, 6355, 1171, 6537
7077, 6569, 7562, 7725, 6418
7078, 6420, 1239, 6539, 6296
7079, 7755, 6648, 1059, 6424
7080, 6424, 6354, 7803, 1060
7081, 6311, 6469, 6527,  955
7082, 6571, 6469, 6545, 7421
7083, 1285, 6484, 6327, 6935
7084, 6530, 6475, 7561,  980
7085, 7083, 6429, 6921, 6506
7086, 6579, 6430,  447, 6521
7087, 6596, 1188, 6439, 6640
7088, 6394, 6449, 7352, 7417
7089, 6518, 6434, 6575, 7622
7090, 6438, 6435, 6243, 6120
7091, 6927, 6511,  420, 6436
7092, 6369, 6437, 6650, 1200
7093, 6636, 6640,  448, 6579
7094, 6143, 6915, 7113, 6442
7095,  468, 6443, 6356, 7198
7096,  468, 6573, 7266, 6443
7097, 6444, 6299,  423, 6523
7098, 6449, 1017, 6583, 7270
7099, 6520, 6446,  990, 6486
7100, 6446, 6643, 6517, 7654
7101, 1199, 6504, 6448, 6526
7102, 6448, 7171, 6398, 6526
7103, 7351, 6434, 7483, 7352
7104, 6561, 6490, 6323, 1260
7105, 6451,  458, 6392, 7266
7106,  446, 6493, 6452, 6709
7107, 1289, 6320, 7097, 6489
7108, 6554, 7042, 6509, 1253
7109, 6510, 6454, 1263, 6565
7110, 6646, 6651, 6455, 7208
7111, 6506, 6456, 6599, 1205
7112, 6457, 6541, 6627, 6566
7113, 1185, 6680, 6584, 6535
7114, 6458, 6604, 6521,  447
7115, 7056, 6616, 1232, 6548
7116, 6653, 6594, 7558, 6726
7117, 1057, 6334, 6459, 6543
7118, 6543, 7462, 6611, 6462
7119, 1023, 6305, 6462, 6544
7120, 6536, 6463, 1203, 6566
7121, 6548, 6464, 1266, 7056
7122, 6614, 6550, 6464, 6548
7123, 6718, 6544, 1024, 6695
7124,  988, 6307, 6465, 6545
7125, 6466, 1265, 6464, 6550
7126, 6466, 6615, 6558, 1264
7127, 6314, 7063,  983, 6467
7128, 6468, 6630, 6567, 1193
7129, 6469, 6311,  988, 6545
7130, 6626, 6470, 6558, 1230
7131, 7042, 6554, 1288, 6366
7132, 6524, 6471, 6620, 1252
7133, 7479, 6574, 6472, 6580
7134,  449, 6344, 6473, 6522
7135, 7602, 6474, 6578, 7589
7136, 6702, 6477, 6651, 6646
7137, 6573,  468, 7198, 6503
7138, 6480, 1261, 6568, 6628
7139, 6490, 6561, 6508, 6450
7140, 6481, 1273, 6564, 6624
7141, 6591, 6639, 6622, 7142
7142,  460, 6333, 6482, 6556
7143, 1220, 6621, 6562, 6589
7144, 6581, 6532, 1285, 7040
7145, 6347, 6427, 6484, 7136
7146, 6495, 6557, 1052, 6309
7147,  989, 6520, 6486, 7482
7148, 1058, 6726, 7594, 6656
7149, 6670, 6535, 6749, 6714
7150, 6619, 6549, 1270, 6494
7151, 6549, 6496, 7020, 1270
7152, 6617, 6547, 6496, 6549
7153, 6552, 1125, 7335, 6498
7154, 6372, 6498, 6534, 1090
7155, 1091, 6534, 6499, 7336
7156,  459, 6573, 6503, 6556
7157, 6492, 6503, 7198, 6478
7158, 6589, 6562, 6582, 7435
7159, 6505, 6587, 6603, 6581
7160, 6532, 6581, 6603, 1250
7161, 6506, 1205, 6605, 7083
7162, 1273, 6435, 6960, 6625
7163, 1226, 6560, 6508, 7211
7164, 6647, 6511, 6674, 7110
7165, 6512, 7711, 1025, 6725
7166, 6513, 6602, 6694, 6634
7167, 6513, 6634, 6523,  423
7168, 6409, 6514, 6688,  981
7169, 6635, 1016, 7351, 7270
7170, 6590, 6515, 6569, 1015
7171, 6654, 6516, 1162, 6525
7172, 6517, 1025, 7711, 6423
7173, 6518, 7622, 6426, 7679
7174, 6537, 1171, 6595, 7210
7175, 6636, 1187, 6596, 6640
7176, 1161, 6447, 6523, 6634
7177, 1251, 6597, 6669, 6729
7178, 6606, 6658, 6654, 6525
7179, 6610, 6528, 1262, 6704
7180, 6631, 6568, 1261, 6975
7181, 6609, 6529, 6699, 1159
7182, 6412, 6529, 6609, 1158
7183, 6638, 6531, 1017, 6445
7184, 1250, 6421, 7136, 6532
7185, 6522, 6473, 6371,  448
7186, 6572, 6501, 7275, 7089
7187, 7330, 6533, 7323, 7331
7188, 1185, 6535, 6670, 6655
7189, 6652, 6692, 6536, 6566
7190, 6657, 7210, 1206, 7308
7191,  421, 6538, 6591, 7142
7192, 6539, 1239, 6572, 7164
7193, 1091, 7461, 6594, 6608
7194, 6541, 1202, 6477, 6702
7195, 6542, 7220, 6546, 6651
7196, 6542, 1201, 6500, 6613
7197, 1058, 6701, 6611, 7462
7198, 6546, 7170, 6455, 6651
7199, 6623, 6497, 7191, 7151
7200, 6700, 6723, 6629, 6650
7201, 6617, 6549, 1235, 6692
7202, 6697, 1231, 6675, 6676
7203, 6551, 1236, 6683, 6619
7204, 1125, 6233, 6499, 7335
7205, 6553, 1268, 6497, 6623
7206, 1253, 6689, 6691, 6620
7207, 1221, 6562, 7230, 6332
7208, 1253, 6509, 6555, 7231
7209, 6482, 6563, 7142, 6622
7210, 6485, 1052, 6557, 7265
7211, 6557, 6495, 6638, 7265
7212, 6559, 1237, 6618, 6491
7213, 6559, 1272, 6481, 6624
7214, 6630, 7093, 7043, 6567
7215, 7163, 6561, 6480, 6628
7216, 6582, 6562, 1221, 6431
7217, 7231, 7289, 6689, 1253
7218, 1234, 6652, 6566, 6627
7219, 6644, 6567, 7043, 1194
7220, 7093, 6686, 6684, 7043
7221, 6569, 6515, 7561, 7562
7222, 6616, 6613, 7209, 1232
7223, 7482, 6571, 7421,  989
7224, 7164, 7086, 6625, 6507
7225, 6588, 6574, 7479, 6731
7226, 6632, 6574, 6588, 1184
7227, 7525, 6600, 6590, 1015
7228, 7622, 6575, 7525, 1015
7229, 6576, 7494, 7336, 6300
7230, 6511, 6927, 1158, 6674
7231, 7589, 6578, 7484, 5753
7232, 6587, 6505, 6597, 1251
7233, 7435, 6582, 6596, 1187
7234, 6583, 6668, 6635, 7270
7235, 7833, 7771, 6535, 6584
7236, 6680, 6666, 1186, 6604
7237, 7323, 6157, 6585, 7331
7238, 6703, 6587, 1251, 6705
7239, 6603, 6587, 6703, 6633
7240, 6731, 6706, 6655, 6588
7241, 6673, 6589, 7435, 7598
7242, 6622,  459, 6556, 6482
7243, 6647, 7110, 7192,  421
7244, 6602,  422, 6659, 6694
7245, 6696, 7194, 6671, 6593
7246, 7461, 1091, 7336, 7494
7247, 6519, 1206, 7210, 6595
7248, 6640, 6439, 6522,  448
7249, 7598, 7435, 1187, 6690
7250, 6669, 6440, 6524, 1252
7251, 1125, 6552, 6598, 7386
7252, 6514, 6600, 1016, 6635
7253, 6728, 6667,  410, 4892
7254,  422, 6592, 6712, 6659
7255, 6521, 6604, 1186, 6641
7256, 6458, 6584, 6680, 6604
7257, 6683, 1236, 6710, 6663
7258, 6519, 7150, 7124, 1206
7259, 6606, 1161, 6660, 7436
7260, 1059, 6648, 7594, 6607
7261, 7109, 7192, 7110, 6674
7262, 6704, 1262, 6510, 6645
7263, 6631, 6528, 6610, 6698
7264, 6612, 6718,  989, 7421
7265, 6612, 6465, 6544, 6718
7266, 6614, 1231, 7291, 6550
7267, 1230, 6558, 6615, 6697
7268, 7220, 6616, 7056, 1267
7269, 6720, 6618, 1237, 7194
7270, 7231, 6555, 6483, 6621
7271, 7142, 6563, 6647,  421
7272, 1237, 6559, 6624, 6637
7273, 1233, 6627, 6541, 6702
7274, 6675, 1231, 6723, 6700
7275, 6723, 1231, 6614, 6733
7276, 6630, 6560, 1226, 7093
7277, 1227, 6568, 6631, 6698
7278, 6681, 6717, 6731, 7479
7279, 6415, 6514, 6635, 6668
7280, 6718, 6695, 6520,  989
7281, 6661, 6643, 6695, 1024
7282, 1184, 6588, 6655, 6670
7283, 6711, 7599, 7598, 6690
7284, 1025, 6517, 6643, 6661
7285, 6672, 6645, 1229, 6715
7286, 6704, 1228, 7311, 6610
7287, 6363, 6426, 7622, 1015
7288, 6656, 6725, 6701, 1058
7289, 6676, 6649, 1198, 6716
7290, 6649, 6676, 6675, 1199
7291, 6700, 6504, 1199, 6675
7292, 7151, 6652, 1234, 6623
7293, 1058, 7462, 6653, 6726
7294, 6543, 6459, 6653, 7462
7295, 6648, 7710, 6656, 7594
7296, 6657, 7308, 7331, 6585
7297, 1197, 6678, 6654, 6658
7298, 6712, 6592, 6687, 6746
7299, 6659, 1160, 7250, 6694
7300, 6664, 7250, 6737, 7327
7301, 6701, 6661, 1024, 6611
7302, 6682, 6662, 6710, 1236
7303, 6696, 1206, 7124, 6730
7304, 1205, 6599, 6663, 6710
7305, 1218, 6706, 6731, 6717
7306, 6664, 6634, 6694, 7250
7307, 6707, 7327, 6737, 7249
7308,  410, 4388, 6665, 7948
7309, 6728, 6734, 7752, 6667
7310, 6709, 6601, 6667, 7752
7311, 6729, 6669, 1252, 6740
7312, 6714, 6677, 1184, 6670
7313, 6696, 6593, 7308, 1206
7314, 6719, 6724, 1228, 6672
7315, 1186, 6711, 6690, 6641
7316, 1220, 6589, 6673, 6727
7317, 6716, 1198, 6678, 6685
7318, 6679, 6733, 1232, 7209
7319, 6680, 1185, 6744, 6666
7320, 6633, 6703, 6717, 6681
7321, 6682, 1236, 6618, 6720
7322, 6738, 6686, 1227, 6741
7323, 1194, 7043, 6684, 6742
7324, 1229, 6626, 6685, 6715
7325, 6738, 6708, 6684, 6686
7326,  421, 7192, 6592, 6538
7327, 1186, 6666, 7645, 6736
7328, 1252, 6620, 6691, 6740
7329, 6692, 1235, 6642, 6536
7330, 6696, 6730, 6720, 7194
7331, 1231, 6697, 6615, 7291
7332, 1228, 6724, 6721, 7311
7333, 6717, 6703, 6705, 1218
7334, 6713, 6727, 7599, 7629
7335, 1218, 6752, 7645, 7646
7336, 6742, 1195, 7249, 7160
7337, 7677, 6735, 6677, 6714
7338, 6736, 7617, 6711, 1186
7339, 6711, 7617, 7629, 7599
7340, 1160, 6659, 6712, 6746
7341, 1220, 6727, 6689, 7289
7342, 6732,  446, 6709, 7752
7343, 6719, 1197, 6658, 1196
7344, 7437, 6741, 6721, 6724
7345, 6662, 6682, 6720, 6730
7346, 6738, 6747, 1195, 6708
7347, 1160, 6748, 6737, 7250
7348, 6746, 6722, 6748, 1160
7349, 6629, 6723, 6733, 6679
7350, 6719, 1196, 7437, 6724
7351, 6725, 6656, 7710, 6512
7352, 6540, 6607, 7461, 7494
7353, 7594, 6726, 7558, 6607
7354, 6732, 7752, 6734, 7677
7355, 6735, 7677, 6734,  445
7356, 6735,  445, 6750, 1183
7357, 7646, 7645, 6666, 6744
7358, 6752, 6743, 1219, 7617
7359, 6739, 1194, 6742, 7160
7360, 6739, 7160, 6748, 6722
7361, 6705, 6743, 6752, 1218
7362, 6707, 6747, 7437, 1196
7363, 6745,  444, 6754, 7779
7364,  445, 5368, 6745, 6750
7365, 6747, 6707, 7249, 1195
7366, 6747, 6738, 6741, 7437
7367, 7249, 6737, 6748, 7160
7368, 6493, 6749, 6535, 7771
7369, 6753, 6751, 1183, 7678
7370, 1183, 6750, 6755, 7678
7371, 7727, 6754, 1182, 5892
7372, 6757, 7678, 6755, 7727
7373, 6271, 6757, 7727, 5892
7374, 6764, 1339, 6779, 5548
7375, 5535, 6766, 1328, 6776
7376, 2868,  480, 6772, 6773
7377, 6781, 2325, 6815, 2606
7378, 2589, 6781,  756, 6847
7379, 5867, 6787,  428, 6843
7380, 6791,  769, 3015, 3105
7381,  760, 6795, 4487, 6846
7382, 4753, 4972, 6801,  374
7383, 6802, 3173,  374, 6801
7384, 1827, 1786, 6803, 6816
7385, 6807, 2825, 6812, 2781
7386, 6808, 1644,  701, 1743
7387, 6809, 1662, 1731, 1822
7388, 6855, 6811, 1893,  607
7389, 4537, 4557, 6829, 6830
7390, 5676, 5152, 6834, 6835
7391, 5844, 6836, 6837,  419
7392, 5536, 6842, 5218, 6892
7393, 6082, 6843, 5711, 6870
7394, 6849, 1830,  689, 2320
7395, 6852, 6809, 1822, 1887
7396, 6861,  749, 2600, 6862
7397, 6865, 1308, 6974, 5773
7398, 5767, 6823, 6867, 6868
7399, 2692, 2776, 6872, 6871
7400, 6877, 1705, 6943, 1841
7401,  655, 4823, 6878, 6879
7402, 6879, 6878, 6939, 6940
7403, 6927, 6886, 6410, 1158
7404, 6889, 5958, 6952, 7044
7405, 6890, 4725, 4542, 4555
7406, 6898, 5154, 6905, 5174
7407, 3581, 4772, 6899, 6900
7408, 1261, 6901, 6247, 6975
7409, 5417, 6850, 6905, 6985
7410, 6906, 5799, 1294, 6990
7411, 6945, 6907, 6987, 3215
7412, 3443,  373, 6907, 6945
7413, 6965, 5798, 6908, 5911
7414, 6176, 6914, 5943, 7010
7415, 7113, 6826,  920, 6258
7416,  531, 2349, 2363, 6918
7417, 6922, 5335,  425, 5587
7418, 6923, 4591,  283, 6992
7419, 6992, 4608, 6924, 6923
7420, 3532, 6925,  789, 6984
7421, 6166, 6926, 1270, 7020
7422, 7013, 6929,  785, 6948
7423,  486, 5795, 6936, 6937
7424, 6879, 6940, 6941, 5126
7425,  785, 6888, 6947, 6948
7426, 6954,  256, 5775, 6891
7427, 5783, 5536, 6955, 6956
7428, 7097, 6958, 5941, 6225
7429, 6959, 6128, 1289, 7041
7430, 6961,  887, 7033, 5988
7431, 6073, 6963, 6964, 6165
7432, 6970, 6969,  810, 5041
7433, 6980,  665, 6983, 5001
7434, 6981, 2808, 7060, 2660
7435, 6994, 6983,  665, 3311
7436, 6987, 3476, 7053, 3215
7437, 7030, 6985, 6989, 7031
7438, 6990, 6997, 6991, 6906
7439, 6997, 6990, 5938, 6999
7440, 4969, 5319, 6998,  776
7441, 7000, 2940, 7064, 6968
7442, 6031, 7001, 7003, 1222
7443, 5110, 7005, 7039,  632
7444, 6939, 5436, 4792, 7087
7445, 7087, 7069,  666, 6941
7446, 7007, 7006, 2615, 2568
7447,  314, 2823, 7006, 7007
7448, 7012, 5395, 6929, 7013
7449, 7019, 5772, 1299, 6228
7450, 2578, 7023, 7062, 2420
7451, 1086, 5789, 7024, 7025
7452, 7031, 6989, 5120, 7088
7453, 7202, 7032,  921, 6001
7454, 6366, 6959, 7041, 7042
7455, 7090, 7045, 2250, 2294
7456, 3185,  656, 7046, 7047
7457, 7047, 7153, 7154,  668
7458, 7141, 7049, 1141, 2293
7459, 1266, 6964, 7054, 7056
7460, 6338, 6455, 7170, 7055
7461, 7060, 2808, 7161, 2767
7462, 7128, 7129, 7066, 7185
7463, 7128,  790, 2688, 3665
7464, 4792, 6994, 7069, 7087
7465, 7207, 7071,  467, 6392
7466, 5207, 5712, 7072, 7174
7467, 7082, 3894, 3835,  251
7468, 7150, 7083, 6605, 7124
7469, 6519, 6429, 7083, 7150
7470, 2862, 7144, 7143, 2759
7471, 7089, 7086, 7164, 6572
7472, 6564, 7086, 7089, 1238
7473, 1238, 7089, 7275, 6533
7474, 7091, 6046,  498, 7016
7475,  467, 6029, 6290, 6443
7476, 7109, 6609, 1159, 6687
7477, 7077, 7076, 2423, 2303
7478, 6442, 7114, 7115,  921
7479, 7114, 6442, 7113, 6258
7480, 7118, 2940, 7143, 7144
7481, 7119, 2564, 7215,  547
7482, 2948, 2864, 7120, 7127
7483, 7123, 7122,  315, 7245
7484, 2455, 2542, 7122, 7123
7485, 5642, 7125, 7278, 5428
7486, 3525, 7185, 7066, 7067
7487, 6267,  415, 7130, 7338
7488, 6003, 6106, 7131, 7132
7489, 5933, 6159, 7149, 7133
7490, 7138,  820, 7242, 5124
7491, 7140, 1812, 1854, 2216
7492, 7145, 4504, 7255, 4494
7493, 7146, 7247, 4468, 4511
7494, 6547, 6617, 7151, 7191
7495, 7154, 7153, 7317, 5094
7496, 7211, 6508, 6561, 7163
7497, 7167, 2540, 2366, 2496
7498, 7169, 3129, 3200, 7168
7499, 7178, 2362, 2301, 2382
7500, 2946, 7181, 7276, 4819
7501, 3525, 3599, 7183, 7185
7502, 7199, 7167, 1107, 2601
7503, 6546, 7220, 1267, 7170
7504, 2995, 7212, 2845, 7173
7505, 7191, 6497, 1269, 7126
7506, 7192, 7109, 6687, 6592
7507, 7194, 1237, 6637, 6671
7508, 1269, 6497, 1268, 6370
7509, 7205, 2579, 2775, 2874
7510, 6628, 6686, 7211, 7163
7511, 3189, 7213, 3242, 7333
7512, 2292, 7214, 1877, 7236
7513, 2831, 7216, 7299,  521
7514, 2376, 2540, 7244, 7139
7515, 7289, 7231, 6621, 1220
7516, 3017,  831, 7306, 7233
7517, 7297, 7236, 2227, 2310
7518, 7123, 7245, 7246, 2424
7519, 7246, 7245, 7329, 2628
7520, 4452,  616, 7384, 4457
7521, 7251, 2666, 7217, 1133
7522, 7253, 7300, 5924,  922
7523, 2449, 7152, 7292, 7256
7524, 2534, 2449, 7256, 7257
7525, 7257, 7256, 7292, 7293
7526, 3306, 7258,  610, 7346
7527, 2850, 7259, 2943, 7303
7528, 7309, 7262, 2637, 2462
7529, 6152, 6306, 7264, 6326
7530, 2773,  805, 3106, 2678
7531, 7280, 5348, 1152, 4761
7532,  684, 7287, 7315, 4378
7533, 7275, 6501, 7314, 1207
7534, 1207, 7323, 6533, 7275
7535, 7220, 6542, 6613, 6616
7536, 7084, 4440, 4429, 4527
7537, 2424, 7094, 7290, 2304
7538, 7293, 7292,  317, 7395
7539, 7395,  317, 2709, 7394
7540,  339, 7272, 7298, 7343
7541, 7300, 6240, 6378, 5924
7542, 2828,  547, 7301, 7302
7543, 5037, 7233, 7306, 7307
7544, 7265, 7427, 7370, 6485
7545, 7331, 7308, 6593, 7330
7546, 7309, 2745, 2854, 7262
7547, 6598, 6552, 6414, 7393
7548, 7368, 7316,  842, 7271
7549, 5094, 7317, 7378, 5216
7550, 2458, 7187, 7318, 7319
7551, 2293, 7319, 7411, 2367
7552,  856, 4953, 7325, 7326
7553, 7326, 7325, 7408, 7409
7554, 7327, 7436, 6660, 6664
7555, 7466, 7332, 3146, 3213
7556, 7339, 7340,  320, 2728
7557,  831, 4763, 7341, 7403
7558, 7341, 5106, 5513, 7403
7559, 4401, 7243, 7342, 7310
7560, 5447, 4886, 7389, 4301
7561, 7389, 4886,  681, 7390
7562, 7343, 7298, 7432, 7528
7563, 7347, 3448, 7458,  599
7564, 1051, 7417, 7352, 7483
7565, 7353,  422, 6406, 7407
7566, 5099,  514, 7492, 5118
7567, 7365, 3552, 3657, 7516
7568, 2521, 7371, 7416, 7398
7569, 4783, 4622, 4628, 7375
7570, 7515, 7380,  599, 3724
7571, 7385, 2972, 7442, 3035
7572, 7390, 4298, 4301, 7389
7573, 7424, 7392, 5896, 5690
7574, 2814, 7293, 7395, 7394
7575, 1072, 7418, 7416, 7371
7576,  861, 4919, 7310, 7342
7577, 7471, 4149,  380, 4189
7578, 7427, 6445, 6394, 7428
7579, 7403, 5513, 7469, 5342
7580, 6213,  458, 6460, 7407
7581, 7500, 7501, 7410, 7409
7582, 7581, 7412, 4845, 1174
7583, 2622, 2521, 7398, 2556
7584, 2976, 7442,  341, 7419
7585, 7585, 7424, 5690, 1126
7586, 6272, 6348, 7429, 7538
7587, 7585, 1126, 6233, 7430
7588, 7528, 3036, 2994, 7343
7589, 7436, 1196, 6658, 6606
7590, 7441, 1177, 7564, 4228
7591, 7531, 7443, 4041, 4079
7592,  500, 7372, 7443, 7531
7593, 4120, 4223, 7444, 7445
7594, 2801, 2809, 7450, 7449
7595, 7450, 2902, 7551, 1069
7596, 7452, 3058, 7534, 3250
7597, 3583, 7458, 3492, 7575
7598, 7461, 6607, 7558, 6594
7599, 5513, 5695, 5889, 7469
7600,  865, 7470, 7469, 5889
7601, 3415, 7474, 3377, 7549
7602, 7588, 7485, 7587, 6301
7603, 7487,  864, 7377, 5510
7604, 7488, 4287, 1210, 4424
7605, 7493, 5435, 7502,  693
7606, 7497, 1208, 7412, 7581
7607, 7498, 3945,  891, 4177
7608, 7501, 4248, 7545, 4183
7609, 7455, 4418, 1242, 4385
7610, 7505, 3338, 1111, 3654
7611, 3679, 3719, 7508, 7611
7612, 7712, 7513, 5724,  958
7613, 2934, 3036, 7528, 7432
7614, 7529, 5510,  899, 5284
7615, 4297, 4274, 4242,  695
7616, 6326, 6348, 6223, 7263
7617, 7625, 7545, 4275,  925
7618, 7548, 3413, 3518, 7663
7619, 7449, 7552, 7550, 2886
7620, 1069, 7647, 3563, 7552
7621, 7556,  924, 7640, 4738
7622,  902, 5699, 7559, 7603
7623, 7560, 5441, 5626, 5310
7624, 7562, 7561, 6475, 6297
7625, 7564, 4257, 7657, 4228
7626, 3420, 3361, 7565, 7566
7627, 7567,  625, 3316, 3509
7628, 7571, 5431, 5465, 5061
7629, 7574, 7573, 6063,  412
7630, 7576, 1010, 7672, 7577
7631, 4143, 7576, 7577, 4103
7632, 7582,  906, 7683, 5512
7633, 4203, 7583, 4781, 7668
7634, 7667, 7586,  990, 6446
7635, 7586, 7667, 6158, 6274
7636, 7587, 5816, 7697, 5814
7637, 7485, 7588, 7589, 5753
7638, 2926, 7620, 7621, 2826
7639, 7592, 5157, 7635, 7636
7640, 4974, 7593, 7592, 7636
7641, 1127, 7593, 4974, 7695
7642, 7468, 7556, 4275, 4258
7643,  538, 7601, 4799, 7635
7644, 7420, 3422, 7506, 3284
7645, 7423, 7530, 3608, 3669
7646, 7604, 4962, 4217,  440
7647, 7642, 7538, 6167, 5973
7648, 7526, 7411, 2512, 2560
7649, 7607, 3405, 3332, 3336
7650,  911, 7547, 7610, 7649
7651, 7693, 7612, 3724, 3872
7652, 7613, 3371,  535, 3544
7653, 7629, 7617, 1219, 6713
7654, 2969, 2837, 2912, 7621
7655, 7624, 3646, 7704,  627
7656, 7632, 5963, 7626, 5818
7657, 5081, 4841, 7627, 7659
7658, 7639, 3763, 3876, 3937
7659, 7646, 6744, 6706, 1218
7660, 4389, 4771, 5298, 5359
7661, 7780, 5868, 5290, 4815
7662, 7702, 7537, 3420, 3348
7663, 7537, 7702,  369, 3198
7664, 7661, 3088, 3137, 7738
7665, 7665, 5950, 7670, 5519
7666, 6148, 7584, 7665, 7666
7667, 1181, 7673, 4661, 7737
7668, 3942, 7676, 7742,  537
7669, 7679, 6426, 7726, 6353
7670, 5660, 7684, 7682, 7728
7671, 5349, 4965, 7682, 7684
7672, 7619, 1040, 7686, 2969
7673,  902, 5287, 5479, 5965
7674, 7760, 7688,  897, 4227
7675, 4246, 7688, 7760, 4199
7676, 3547, 3517,  586, 7692
7677, 2560, 7499, 2634, 7526
7678, 7697,  913, 5646, 7698
7679, 5814, 7697, 7698, 5991
7680, 3644, 3122, 1042, 3585
7681, 5158, 5068, 5020, 7689
7682, 7703, 3667,  626, 3562
7683, 6512, 7710, 6648, 7755
7684, 7726, 7801, 7800, 6353
7685, 3137, 3085, 7788, 7738
7686, 7739, 3627, 7796, 3549
7687, 1128, 7806, 7741, 4009
7688, 7743, 3778, 3728, 3647
7689,  575, 5241, 7746, 7778
7690,  365, 7663, 7748, 7749
7691, 3711, 7750, 7703, 3765
7692, 7754, 7741, 7806, 4784
7693, 7790, 7755, 6424, 6368
7694, 7759, 5905,  942, 6251
7695, 7764, 3873, 5067, 4817
7696, 7766, 3947, 3925, 3823
7697,  908, 5632, 7768, 5155
7698, 7780, 4815, 5262, 5434
7699, 3495, 3579, 3345, 3578
7700, 7789, 3722, 7763, 1035
7701, 7834, 7774,  368, 3514
7702, 7902, 7775, 4015, 4069
7703, 7776, 7625,  925, 4750
7704, 7781, 3485, 7706,  503
7705, 1070, 7662, 7890, 3085
7706, 7798, 5732, 4846, 7815
7707, 7721, 3411, 1147, 3404
7708, 5392, 7799, 3824, 7858
7709, 7804, 3852, 7868,  965
7710,  965, 5397, 3969, 7804
7711, 3780, 3796, 7870, 7807
7712, 7886, 4048,  325, 7809
7713, 3934, 4101, 7814, 3740
7714, 3807, 7817, 7889, 3784
7715, 7821, 3737, 3803, 7849
7716, 7880, 7823, 1013, 5077
7717, 7835, 7824,  517, 3818
7718, 3703, 3745, 7824, 7835
7719, 7826, 7715, 4026, 7761
7720, 7839, 3947, 1129, 7840
7721,  977, 7805, 7845, 7875
7722, 3846, 4054, 5485,  974
7723, 7812, 7760, 4227,  931
7724, 4197, 4211, 4215, 4205
7725, 7923, 7848, 7902, 4069
7726, 1095, 7821, 7849, 7850
7727, 3299, 3194, 7797, 3783
7728, 7856, 5605, 7941, 7942
7729, 5018, 7857, 7901, 4021
7730, 5860, 5982, 7859, 7894
7731, 7949, 7860,  993, 4104
7732, 3896, 3989, 7874, 7907
7733, 4343,  977, 7875, 7939
7734, 7877, 4020, 3969, 4095
7735, 7818, 4290, 4299,  328
7736, 7879, 4393, 7945, 4376
7737, 4292, 7882, 7884, 4245
7738, 7882, 4292, 4302, 7883
7739, 2975, 3025, 7891, 7890
7740, 7932, 7892, 1095, 7850
7741, 7931, 7893, 1094, 5557
7742, 5860, 7894, 7893, 7931
7743, 5480, 7897, 7898, 5199
7744, 3854, 3784, 7889, 7946
7745, 7900, 4359, 7854, 7926
7746, 3961,  403, 3915, 3787
7747, 7904, 1012, 4340, 7925
7748, 5321, 5005, 7905, 7906
7749, 3951, 7844, 7907, 7908
7750, 7918, 7917, 7908, 7907
7751, 7910, 1093, 5864, 7894
7752, 3738, 3632, 3676, 3787
7753, 7943, 7911, 7912, 4117
7754, 7958, 7942, 7915, 1048
7755, 7915, 7942, 7941, 5629
7756, 4109, 7917, 7918, 1149
7757, 4088, 4023, 7919, 7920
7758, 4142, 4243, 7967, 7966
7759, 7922, 3739, 3618, 5902
7760, 7952, 7923, 4069,  972
7761, 7926, 7925, 4340, 7900
7762,  999, 3732, 3851, 7934
7763, 3962, 4022, 7935, 7936
7764, 7975, 7938, 4305, 4262
7765, 7856, 7942, 7958, 5098
7766, 7905, 5291, 5647, 7906
7767, 7957, 7958, 1048, 5077
7768, 7953, 4097, 4057, 4134
7769, 4277, 6756, 7954, 7955
7770,  387, 7959, 4193, 7971
7771, 7965, 7977, 7974,  994
7772, 7977, 7965, 7960, 4062
7773, 7965,  994, 4173, 4713
7774, 7978, 7971, 7984, 4151
7775, 7963, 7885, 5098, 4793
7776, 7979, 7980,  348, 4289
7777,  388, 4151, 7984, 7988
7778, 7979, 4322, 7972, 7980
7779, 4330, 7985, 7987, 4281
7780, 7968, 5340, 1062, 4006
*Nset, nset=_PickedSet3, internal, generate
    1,  7989,     1
*Elset, elset=_PickedSet3, internal, generate
    1,  7780,     1
** Section: Solid
*Solid Section, elset=_PickedSet3, material=RockMaterial
,
*End Part
**  
**
** ASSEMBLY
**
*Assembly, name=Assembly
**  
*Instance, name=ROCK-1, part=Rock
*End Instance
**  
*Nset, nset=Bottom, instance=ROCK-1
  103,  104,  105,  106,  107,  108,  109,  110,  111,  112,  113,  114,  115,  116,  117,  118
  119,  120,  121,  229,  230,  231,  232,  233,  234,  235,  236,  237,  238,  239,  240,  241
  242,  243,  244,  245,  246, 1377, 1378, 1379, 1380, 1381, 1382, 1383, 1384, 1385, 1386, 1387
 1388, 1389, 1390, 1391, 1392, 1393, 1394, 1395, 1396, 1397, 1515, 1516, 1517, 1518, 1519, 1520
 1521, 1522, 1523, 1524, 1525, 1526, 1527, 1528, 1529, 1530, 1531, 1532, 1533, 1534
*Elset, elset=Bottom, instance=ROCK-1
  160,  162,  163,  201,  202,  203,  204,  439,  442,  443,  448,  449,  454,  455,  456,  457
  458,  459,  460,  461,  462,  463,  464,  465,  466,  467,  473, 1055, 1070, 1082, 1096, 1108
 1120, 1130, 1139, 1140, 1148, 1149, 1156, 1157, 1164, 1170, 1175, 1178, 1180, 1181, 2314, 2316
 2395, 2431, 2432, 2435, 2436, 2437, 2438, 2439, 2440, 2441, 2442, 2443, 2444, 2445, 2804, 2805
 2809, 2810, 2811, 2812, 2816, 2819, 2821, 2822, 2823, 2826, 2827, 2828, 2842
*Nset, nset=Pin, instance=ROCK-1
 121,
*Elset, elset=_Sides_S3, internal, instance=ROCK-1
    7,  478,  527,  643,  805,  819, 1179, 1774, 2341, 2348, 2358, 2359, 2425, 2429, 2992
*Elset, elset=_Sides_S1, internal, instance=ROCK-1
    8,   10,   62,   64,   98,  100,  102,  246,  248,  285,  287,  480,  489,  498,  505,  512
  518,  523,  530,  536,  541,  545,  548,  562,  574,  586,  595,  605,  614,  621,  628,  634
  639,  804,  807,  833,  848,  865,  881,  898,  915,  932,  948,  965,  980,  994, 1011, 1027
 1044, 1057, 1072, 1084, 1098, 1110, 1122, 1132, 1142, 1151, 1159, 1166, 1172, 1686, 1732, 2862
 2866, 2868, 2869, 2871, 2872, 2880, 2881, 2882, 2884, 2885, 2886, 2887, 2888, 2889, 2891, 2893
 2895, 2896, 2897, 2899, 2901, 2903, 2905, 2907, 2909, 2911, 2914, 2915, 2933, 2934, 2935, 2936
 2937, 2939, 2940, 2941, 2942, 2943, 2944, 2945, 2946, 2947, 2949, 2950, 2951, 2953, 2954, 2955
 2956, 2957, 2958, 2959, 2960, 2961, 2963, 2964, 2965, 2967, 2968, 2969, 2970, 2972, 2975, 2976
 2994, 2996, 2997
*Elset, elset=_Sides_S4, internal, instance=ROCK-1
  474, 2395
*Elset, elset=_Sides_S2, internal, instance=ROCK-1
 2314, 2363
*Surface, type=ELEMENT, name=Sides
_Sides_S3, S3
_Sides_S1, S1
_Sides_S4, S4
_Sides_S2, S2
*Elset, elset=_Top_S1, internal, instance=ROCK-1
   23,   25,  314,  315,  316,  351,  375,  377,  378,  593,  603,  612,  619,  646,  661,  676
  692,  707,  720,  733,  745,  756,  766,  773,  774,  781,  782,  788,  789,  794,  795,  799
  803, 2363, 2863, 2875, 2916, 2917, 2920, 2921, 2922, 2923, 2924, 2925, 2926, 2932, 2978, 2982
 2989,
*Elset, elset=_Top_S3, internal, instance=ROCK-1
  352,  560,  572,  583,  584,  592,  602,  626,  632,  637,  641,  644,  677, 2380, 2384, 2385
 2386, 2387, 2389, 2390, 2391, 2392, 2393, 2918
*Elset, elset=_Top_S4, internal, instance=ROCK-1
 643, 645
*Surface, type=ELEMENT, name=Top
_Top_S1, S1
_Top_S3, S3
_Top_S4, S4
*Elset, elset=_Water_S4, internal, instance=ROCK-1
   34,  140, 2310, 3308
*Elset, elset=_Water_S1, internal, instance=ROCK-1
   80,   81,  118, 1182, 1220, 1329, 1368, 1369, 1382, 1390, 2306, 2309, 2312, 2313, 2860, 3578
 3581,
*Elset, elset=_Water_S3, internal, instance=ROCK-1
   82,  117,  126,  141,  144, 1219, 1221, 1363, 1370, 1383, 2308, 2311, 3000
*Elset, elset=_Water_S2, internal, instance=ROCK-1
  122, 3809
*Surface, type=ELEMENT, name=Water
_Water_S4, S4
_Water_S1, S1
_Water_S2, S2
_Water_S3, S3
*End Assembly
** 
** MATERIALS
** 
*Material, name=RockMaterial
*Elastic
10000., 0.26
** 
** BOUNDARY CONDITIONS
** 
** Name: BottomUy Type: Displacement/Rotation
*Boundary
Bottom, 2, 2
** Name: PinUx Type: Displacement/Rotation
*Boundary
Pin, 1, 1
** ----------------------------------------------------------------
** 
** STEP: Load
** 
*Step, name=Load, nlgeom=NO
*Static
1., 1., 1e-05, 1.
** 
** LOADS
** 
** Name: PL   Type: Pressure
*Dsload
Sides, P, 10.
** Name: PT   Type: Pressure
*Dsload
Top, P, 10.
** Name: PW   Type: Pressure
*Dsload
Water, P, 2.5
** 
** OUTPUT REQUESTS
** 
*Restart, write, frequency=0
** 
** FIELD OUTPUT: F-Output-1
** 
*Output, field, frequency=99999
*Node Output
COORD, RF, U
*Element Output, directions=YES
COORD, IVOL, S
** 
** HISTORY OUTPUT: H-Output-1
** 
*Output, history, variable=PRESELECT
*End Step
